H  C  N  O  K  Fe
 1.0000000000000000
    12.8035739999999993    0.0000030000000000    0.0000000000000000
     0.0000000000000000   12.3205950000000009    0.0000000000000000
     0.0000000000000000    0.0000000000000000   25.0000000000000000
 H   C   N   O   K   Fe 
 106  56   4  56   1   1
Selective dynamics
Cartesian
  7.5861919837649401  8.0896138981441794  8.5227167500000007   T   T   T
  6.6445477564338606  9.0058990381888204  9.3410305000000005   T   T   T
  3.2102183429441999  5.5041910851213007 10.1772352499999990   T   T   T
 10.7363637412567190  5.9378472374936404 14.8600367499999990   T   T   T
  8.6246468508962995  5.2788830456838003  9.6755030000000009   T   T   T
  7.3797369137297393  0.6069353070604800  9.5285697500000008   T   T   T
  5.9624241639026403  1.3224557473026302  9.3212464999999991   T   T   T
  9.5960534981333403  6.0327602755678802  8.8655344999999990   T   T   T
  2.0837773152848396  7.5813525818121299  6.3552890000000000   T   T   T
  3.6147261375770996  6.3603806207626503 11.4259335000000011   T   T   T
 11.2826663806172398  6.3730978875042306 16.3873432500000007   T   T   T
  8.1447161466514206  6.7811734931330401  5.1931954999999999   T   T   T
 11.5571399253844795 11.7521468924838608  6.7501077500000006   T   T   T
  0.2735861290533000  0.4814162251933500  7.7696740000000002   T   T   T
  2.6908576241731796  9.6986119843170613  9.7176600000000004   T   T   T
 10.3323915201242400  2.1787318402243803 12.3823142500000003   T   T   T
  2.5389283665173399  2.2434096881247303 12.7469877499999988   T   T   T
  3.4233783886117197  2.9263647477819901 11.7772075000000012   T   T   T
  4.1338137561146997  6.5449598882930999  6.1642055000000004   T   T   T
  3.0923609321312395  5.3666772005326804  6.0539620000000003   T   T   T
  0.3066453412285200  5.9043146640360904 14.5806209999999989   T   T   T
  1.8163758246165000  5.4948688731477002 14.3509345000000010   T   T   T
 11.7250581582157807  8.0445793970166601 14.6204014999999998   T   T   T
  7.6122687668592599  5.2452923078837701  5.4624862500000004   T   T   T
  0.0082412764765800  9.1318907214455116 14.5745065000000000   T   T   T
  5.2561763333120997  2.4697081142287503  7.2348607499999993   T   T   T
  4.0958622983140796  5.3612080771302599  8.2347297499999996   T   T   T
  9.3512198430688791 11.6528928943551620 10.1602967500000005   T   T   T
  8.5271948800743598 10.3387469906788212 10.5723845000000001   T   T   T
  7.6644373132294801 11.4212587832105115  7.0971779999999995   T   T   T
  8.1320457298210194  0.2480839852743900  6.1021844999999999   T   T   T
  4.2363771697489199  1.6897829174687402  8.2710290000000004   T   T   T
  6.0268319027309394  0.7022265375882299 11.5788732500000009   T   T   T
  4.9743918197551196  1.1756625259053901 12.6006582499999986   T   T   T
 11.6271391130143193  5.9196220828511406  5.6659617500000001   T   T   T
 12.2442496137385195  6.7805183820092401  4.3773942500000000   T   T   T
  0.0482374650450000  5.9534458097880005  9.3237319999999997   T   T   T
  6.2384279918343601 11.2628634012914706  9.6656687500000000   T   T   T
  5.9815976440033793 10.2446181572745623 10.7963174999999989   T   T   T
  4.4511114148397395  3.8321347214380803  8.6512270000000004   T   T   T
  0.4397457909957000  2.1131250644386497  9.3501060000000003   T   T   T
  4.9716483979541399 11.3680482129901819 12.3268007500000003   T   T   T
  4.3338279882492001  9.8903034554418010 12.7102882499999978   T   T   T
  6.1596427356542396  7.2928993312722312  5.8311425000000003   T   T   T
  5.6042892498331200  7.9089625863719411  7.1787542499999999   T   T   T
  5.8882891657993195  5.9797505396394897 12.9559714999999986   T   T   T
  4.5361436628102005  5.4097769514299996 13.5576407499999991   T   T   T
  5.5957212261480596  2.1906985867423199  4.9500754999999996   T   T   T
  4.3740048352467600  1.4410581044168700  5.5991660000000003   T   T   T
 10.2670793368285782 11.1858654315251123 12.0782912500000013   T   T   T
 11.1590142002476203  2.6380542880157400 10.2566354999999998   T   T   T
  4.0615795766074196  7.9962955304982906 13.6081325000000000   T   T   T
  3.0586725523296598  8.9655887841164716 14.4115492500000002   T   T   T
  1.2741234678551399  3.1355504520460804  5.5697012499999996   T   T   T
 12.6462532853685001  3.5390011028079003  5.9689995000000007   T   T   T
  1.3367488211469001  9.5711249263036517  5.6598797500000000   T   T   T
  2.0566368112625999 10.9432831895788514  5.5574072499999998   T   T   T
 10.0486201479539403  3.8725222041622800 10.0610102500000007   T   T   T
 10.5292463423384994  9.9340585432873514  9.1453384999999994   T   T   T
 12.0832144542538806  0.8365963657266601  4.8883062499999994   T   T   T
 10.5534630222021004  1.1159096866209000  5.1450005000000001   T   T   T
  7.4153103637313400  5.9279009054371796 11.6195655000000002   T   T   T
 10.3667200786258196  3.8774779916229902 13.9097472500000006   T   T   T
  9.4204346837554791  7.3517552080041604  6.9967077500000006   T   T   T
 10.0988075973191407  8.1358557744102296  8.2181145000000004   T   T   T
  3.2656345158595195 12.2879465580372909  7.0018822499999995   T   T   T
  4.2460210777571996 11.5640380311372013  6.0492710000000001   T   T   T
  9.3421938355418384  8.4955922067324305  4.9954774999999998   T   T   T
 10.4552131326484794  7.4415682758044106  5.1412932500000004   T   T   T
 11.9753161754410797  4.9657201791272101  7.7094645000000002   T   T   T
 10.5656903073363608  4.4471437875812700  6.8573339999999998   T   T   T
  9.1025626567007993  4.8667275909849002 13.7755562500000011   T   T   T
  8.2908042858127207  6.6344489167733407 12.7897307500000004   T   T   T
  2.2668324454418998  0.8760091275307500  8.3853722499999996   T   T   T
  0.1175698425409200 11.1005886424302904 12.1404947500000002   T   T   T
  3.7266400013035201  3.7306665666816907 14.2190462499999999   T   T   T
  1.8243464335387198 10.9247724268110904 14.5901985000000014   T   T   T
  1.3573586061789600 10.4827495339310701 16.0100379999999980   T   T   T
  5.9397618379226405  5.2199086565625308  9.2803992500000003   T   T   T
  2.8317359890738798 12.0586998557366094  9.3323712499999996   T   T   T
  6.6510121529107202  6.6103190168646906  9.4600847500000000   T   T   T
 11.1296492032786194 10.5293064239393406 13.1877627500000010   T   T   T
 11.4725464558949994 10.0826150777598009  7.9185337499999990   T   T   T
  9.8804736273982208 10.6359072457461910  4.3745602500000000   T   T   T
  9.2078214787334982 10.7900829481710012  5.7495892499999997   T   T   T
  4.8456595653295196  4.4384474338139404 15.1034589999999991   T   T   T
  2.5633273692746998  4.3001791448601008  4.0558187500000003   T   T   T
  3.5205814579550996  3.5024408022678002  4.9945297499999999   T   T   T
  3.4674166654919398 10.4856307066548293 10.9238737500000003   T   T   T
 10.4949104857997391  1.0008981506359802 13.3496195000000011   T   T   T
  8.9309726149177795  0.5497645367573101  8.2600882500000008   T   T   T
  1.6888609340068197 11.2455182640849909 11.5956714999999999   T   T   T
  0.8778116250468599  0.5589049009324200 13.0072190000000010   T   T   T
 12.5635716455487003  1.8692375381398501 12.8947324999999999   T   T   T
  0.5762630025205200  7.5359333407671896  6.3145362499999997   T   T   T
  0.4678722982516800  2.0120113031294098  7.0728805000000001   T   T   T
  0.3944996249443200  4.4410533055605903  9.2703430000000004   T   T   T
 10.9447566322168193  6.6882900459459913 10.2437459999999998   T   T   T
 11.6060500902074395  7.9417414571680798  9.6322397500000001   T   T   T
  0.4727502038742000  2.3186822487697500 10.9227685000000001   T   T   T
  0.0425706031926000 10.8460267744707011  6.5098680000000009   T   T   T
  9.3245925062925608  1.7839055703055202  9.2932635000000001   T   T   T
  1.7997063394829400  8.1578784950911807  8.4957917499999986   T   T   T
  2.7054202812050399  7.5383683892211302  9.6725984999999994   T   T   T
  5.9239757993950795 10.6032324703787122  4.7675872500000001   T   T   T
  5.4316371515867994  9.5440049296195504  5.8598900000000000   T   T   T
  0.0000000000000000  0.0000000000000000  1.7000000000000002   F   F   F
  2.1315669113113200  1.2034002009753901  1.8542852499999998   T   T   T
  0.6783473064156600  1.2201451507544703  1.7150212500000002   T   T   T
  2.8639245582171000 12.2987353625424003  1.8373817500000000   T   T   T
  4.2604651736938193 12.2902364505104416  1.9081872499999999   T   T   T
  6.3811052588820596  1.2082860661885202  2.0690597500000001   T   T   T
  4.9566623267300995  1.1921100232524002  2.0058467499999999   T   T   T
  7.0623515505227994 12.2859383282178012  1.9458117500000001   T   T   T
  8.5033917556509593 12.3027724180217710  1.8939732500000002   T   T   T
 10.6305833016192590  1.2567483974311202  1.8120094999999998   T   T   T
  9.2236584754855802  1.2092906143065600  1.8657562499999998   T   T   T
 11.3462420151712795 12.2998086257658610  1.7327072499999998   T   T   T
 12.7471825788530992  2.3951404538533505  1.6824437500000000   T   T   T
  2.0187008457865199  3.6464893973361905  1.8076920000000001   T   T   T
  0.6199971945182400  3.6377780393236803  1.7122330000000001   T   T   T
  2.7800310601181999  2.4221833029507005  1.9313077500000002   T   T   T
  4.2519242935856392  2.4150427541733297  2.0344989999999998   T   T   T
  6.4146449891895001  3.6625564832279998  2.1611539999999998   T   T   T
  4.9511173549021796  3.6705382841921099  2.1107517499999999   T   T   T
  7.1136367783227588  2.4249891018077703  2.0869305000000002   T   T   T
  8.5125099489107985  2.4645599773624500  1.9398460000000000   T   T   T
 10.6135948794573594  3.7066252784543701  1.8793697500000002   T   T   T
  9.2315324174240985  3.6999633321133500  1.9964057500000001   T   T   T
 11.3367128271860391  2.4457011347158804  1.7699904999999998   T   T   T
 12.7526298594113996  4.9182751051797000  1.7134742500000002   T   T   T
  2.0897289286229999  6.1256437288810508  1.8638017499999999   T   T   T
  0.6716491166775600  6.1488583545341697  1.7064382499999999   T   T   T
  2.7845805540676198  4.8795727950276904  1.9706752500000000   T   T   T
  4.1687142502668593  4.8882894474821699  2.1278385000000002   T   T   T
  8.4821328294171003  4.8553331129443498  2.1215959999999998   T   T   T
 10.6203112502705395  6.1978149681561314  1.7382994999999999   T   T   T
  9.1569367467282596  6.1309650480986706  1.9686132499999998   T   T   T
 11.3116027139287194  4.9545971136527402  1.7544199999999999   T   T   T
 12.7784099836961396  7.3798892110507808  1.5754402500000000   T   T   T
  2.1238608242279398  8.6106333319846797  1.7267930000000000   T   T   T
  0.6702947546198400  8.6086604641407298  1.5904165000000001   T   T   T
  2.7758495408855399  7.3748288934897301  1.9475659999999999   T   T   T
  4.1746484507443800  7.3414660356293107  2.1599182500000000   T   T   T
  6.4450311992207396  8.6498110028394297  2.0694132500000002   T   T   T
  4.9913157119040603  8.5447761113735705  2.0786647500000002   T   T   T
  8.5433010079519196  7.4454894732135903  2.0125970000000000   T   T   T
 10.6308169668447601  8.6382859437806712  1.4890479999999999   T   T   T
  9.2060839057059596  8.6208076138850700  1.6229950000000000   T   T   T
 11.3633858727215387  7.4058762177067807  1.5604325000000001   T   T   T
 12.8001396973459798  9.8498144197419606  1.5871822500000001   T   T   T
  2.1876500223963000 11.0506085393512503  1.7984442500000000   T   T   T
  0.7121644901716800 11.0653356168641110  1.8113364999999999   T   T   T
  2.8268365734470398  9.7980277596748806  1.8339842499999999   T   T   T
  4.2725481625491000  9.7696457597471991  1.9007695000000002   T   T   T
  6.4143301493048401 11.0381238387298808  1.7764862499999998   T   T   T
  5.0031430133865600 11.0344997746738205  1.8607827500000000   T   T   T
  7.1325388226546993  9.8395603854336002  1.8214669999999999   T   T   T
  8.5180318743055192  9.8507124502202412  1.7198439999999999   T   T   T
 10.6256176915148401 11.0815055172639312  1.6016885000000001   T   T   T
  9.2108295504090592 11.0970228519620715  1.7019099999999998   T   T   T
 11.3617389489979193  9.8544400965155408  1.5393417500000000   T   T   T
  4.7961019237693803  6.1009748356416607  2.3059270000000001   T   T   T
  7.1296304908205999  4.7677285605580515  2.2874490000000001   T   T   T
  7.2342144364677603  7.5809523836237700  2.3898632499999999   T   T   T
  8.3360814365131795  2.6620850703290100  5.7342622500000004   T   T   T
  0.7052431341387599  1.5419749920239700 12.7616325000000010   T   T   T
  3.3985101348672599  6.0838120425434710  6.7001984999999999   T   T   T
  8.9433185891830203  0.8614775644452901  9.2020064999999995   T   T   T
  1.0685523565688999 10.9232922998499014 12.3308622500000009   T   T   T
  6.6087412813854600 10.3938342623248214 10.0105752500000005   T   T   T
  3.5021476403243401 12.2615886717472797  5.9646869999999996   T   T   T
 12.1328111467147188 11.1221250240395406  7.1594467499999999   T   T   T
  9.4537904267045381  7.5704906240355312  5.2135267499999998   T   T   T
 11.9062991499727797  6.7969496643459610  5.2987330000000004   T   T   T
  1.0846627096258801  6.0498207036651603 14.0297175000000003   T   T   T
  5.6241711516832797  0.5057794842039600 12.4339839999999988   T   T   T
  2.1862144856794199  8.3325509875293911  9.3332462500000002   T   T   T
 11.0931690041663380  9.3996038313267309  8.5732782499999995   T   T   T
  4.9686489046731594  2.3810609962154703  8.2257707500000006   T   T   T
 11.5317592726085394  4.6713261107938804  6.8123630000000004   T   T   T
  8.4846935442170999 11.8919456231322016  6.7942802499999999   T   T   T
  9.4509001479097794 10.7232301013912110 10.4664324999999998   T   T   T
  3.0708196870906801  0.3416761992981600  8.5605159999999998   T   T   T
  9.3204508061750388  7.4616277866679805  8.0197420000000008   T   T   T
 10.0178425326655187  4.7686493393283902 14.1362147500000006   T   T   T
  1.6450499205650999 10.1932162348696504 15.1717204999999993   T   T   T
  2.8130743958616597  6.0238670360453712 10.9246092499999996   T   T   T
  6.6820832261152194  8.0637065551665899  8.9159399999999991   T   T   T
  7.6019061942423596  5.9172993235727702 12.6270352499999987   T   T   T
 11.3453830233916193  6.5388643619792406 15.4024990000000006   T   T   T
  6.7771090476998994  5.6759635618667996  9.6671845000000012   T   T   T
  3.4514472797846993  8.7529553658112498 13.5687384999999985   T   T   T
  6.4395557507996397  0.5877877732834800  9.7467360000000003   T   T   T
  7.2763430602858792  6.1740631576211111  5.2163587499999995   T   T   T
  9.5905836832847999  5.4323633880460509  9.7067794999999997   T   T   T
  0.4217561293470000  2.7359864569450498  5.8165827500000002   T   T   T
  1.3147926122730000  8.2005654237618000  6.4516344999999999   T   T   T
  0.5927972819126399  1.4108278993755301  7.9241414999999993   T   T   T
  1.2233889217729199 10.5127643200499410  5.3397512499999999   T   T   T
 12.0787631637170385  8.7938558487883807 14.0744969999999991   T   T   T
  3.9205485931046398  4.4643220682289302 14.8424024999999986   T   T   T
  4.3399324762609197  4.7483883921395407  8.9726505000000003   T   T   T
 10.2347765598052796  2.8585349383674599 10.3652567500000004   T   T   T
  4.7828137344934802  2.3643055595022604  5.5112337499999997   T   T   T
  4.9561437819830996  6.2263923699435004 13.1073699999999995   T   T   T
 10.9737277912495799 11.3826726871284603 12.7093155000000007   T   T   T
  5.4127681404757793  7.8483267332042104  6.2184642500000002   T   T   T
 11.2747619661725995  0.4639435173381000  5.2792174999999997   T   T   T
  4.7724804820610398 10.4537406307576806 11.9736049999999992   T   T   T
  9.3127022112259787 10.1347426395147604  4.9711972500000003   T   T   T
  3.4455406069912797  2.6099914631208603 12.6734519999999993   T   T   T
  0.1928514006959400  2.7346299058009804 10.1289724999999997   T   T   T
  2.7622242335062199  4.1857060791995400  4.9799419999999994   T   T   T
  2.8863520666499398 10.6073472069822294 10.1056109999999997   T   T   T
 10.7542096187693996  1.9662549002808003 13.2163019999999989   T   T   T
 11.8473354908092805  7.1529752969202613 10.1731235000000009   T   T   T
  0.2161512166254000  5.1669132330160501  8.7169860000000003   T   T   T
  5.4373107993334200 10.5401907054702892  5.6318687499999998   T   T   T
  7.6586536827821998  3.6999645652501503  6.0739039999999997   T   T   T
  9.5611140811162194  2.6539304787413402  5.9525924999999997   T   T   T
  7.6654921996913403  1.7237269601682301  5.3156914999999998   T   T   T
  1.2428429281800000  8.0234181671100018 12.0452500000000011   F   F   F
  6.3580376997849593  6.1145718406423200  3.3866702499999999   T   T   T
