H  C  N  O  Fe
 1.0000000000000000
    12.8035739999999993    0.0000030000000000    0.0000000000000000
     0.0000000000000000   12.3205950000000009    0.0000000000000000
     0.0000000000000000    0.0000000000000000   25.0000000000000000
 H   C   N   O   Fe 
 110  56   3  55   1
Selective dynamics
Cartesian
  2.1302971808777400  9.7899380169979811  8.3502795000000010   T   T   T
  1.3155531445686000 10.0668258266817006 13.0877307500000004   T   T   T
  2.4242904143866797  9.7829938289235603  9.9033274999999996   T   T   T
  4.6528817851840802  8.7785099166143095 11.7632137500000002   T   T   T
 11.2724185280233797  5.0311867280235596 11.3459235000000014   T   T   T
  7.8207365587272601  7.2361738530131703  7.1763732499999993   T   T   T
  4.8736488182722200 11.3539190548878910  7.1827837500000005   T   T   T
  5.4603048659157603 11.7440456583721211  5.7003145000000002   T   T   T
  7.9378827310045201  8.4405199268924402  8.2038352499999991   T   T   T
  1.4369219355510601  8.6647183653712201  5.6776802499999999   T   T   T
  5.7641503215819592  8.0748334390484704 12.6982800000000005   T   T   T
  9.9636960901837792  5.8914114731309102 11.5893230000000003   T   T   T
  6.3751395616124995  6.8366628206772013  5.8596469999999998   T   T   T
 10.6535949090979791  0.2080953744941100  7.0862949999999998   T   T   T
  1.7586820239223200  3.5123987567585400  6.8159545000000001   T   T   T
  4.5575884969385401  2.8833735293452798  9.7572624999999995   T   T   T
  9.4606421312949003  1.5090174805776002 11.3068159999999995   T   T   T
  3.3481596960050397  4.5063923306235303 13.5782182499999990   T   T   T
  4.4767233001621198  3.8678752950627904 12.7557377500000015   T   T   T
  1.5326283951295798  0.4513797720306601  8.9225127499999992   T   T   T
  0.8629361767021800  0.2529576646998600  7.5228394999999999   T   T   T
  2.7738173576202598  9.3569132380550712 14.4624315000000010   T   T   T
  4.0154650721673599 10.2687093880538711 14.7172492500000001   T   T   T
  9.1512936995234995 10.3423797411409524 11.6705384999999993   T   T   T
  7.8740428306831198  7.1496273531020407  5.5056909999999997   T   T   T
 10.1446734563521197 11.6462280079917910 11.5463542500000003   T   T   T
  3.7253363413988394  5.5586366543590806 10.9882295000000010   T   T   T
  2.5834736649279599  8.5565866855898705 11.9826239999999995   T   T   T
  7.7155183240241403  0.5224868242525800  8.9376412500000004   T   T   T
  7.7571217452367796 11.1546864689169603  8.8249650000000006   T   T   T
  7.8051324589862396  2.0871833133277802  7.3803702499999995   T   T   T
  8.7674787851179197  2.2954936291593904  8.5801529999999993   T   T   T
  3.4033534708399795  6.0399754898742604  9.4831304999999997   T   T   T
  4.8747942260022601  1.9115693010056700 11.8265352500000009   T   T   T
  6.2108355216499191  1.9927417597092900 12.7134837499999982   T   T   T
 11.0555203508908200  6.9325229514672904  7.1054884999999999   T   T   T
 11.5760121373889984  6.3883640358845994  5.7236302500000003   T   T   T
 12.4264728956928003  7.1066026843329002  9.5314772500000000   T   T   T
  5.5382361237100799 11.9023279909793107  9.1456757500000005   T   T   T
  4.1450026713975596 11.1447870101279722  8.9191634999999998   T   T   T
  3.2547304800981598  7.6329819399073209 10.8448877499999998   T   T   T
 11.1194660087334594 11.5743538277554201  8.9403645000000012   T   T   T
  4.9071594844666802  0.0466182154781100 13.5647992500000001   T   T   T
  5.1089621198174999 10.7879706074038513 13.2263029999999997   T   T   T
  5.5250530517767196  4.5519763316595903  6.9407889999999997   T   T   T
  4.3609739978082604  3.9493506234409201  6.0922852499999998   T   T   T
  5.7320694304960798  6.6133863832907114 14.4646964999999987   T   T   T
  5.2580383570789193  5.7626888597865911 13.3011774999999997   T   T   T
  3.6927634089641401  8.3980194093856788  6.8603684999999999   T   T   T
  2.4917913686576401  7.5518432507113813  7.4861287499999998   T   T   T
  7.3788735687349192 10.9469500600542897 10.6759205000000001   T   T   T
  6.4639297865876992  3.0175154397294000  8.6486339999999995   T   T   T
  4.5733044999163202  8.1179869064510406 15.7024355000000000   T   T   T
  4.8697556355260403  7.0683956110683308 16.7935169999999978   T   T   T
 10.8963117492730195  3.4915862381877902  9.2289907500000012   T   T   T
  9.9118275315523796  4.2778294592648107  8.4273072500000001   T   T   T
  0.4160815853502000 10.6212127186110017  5.8108255000000000   T   T   T
  0.9596157079047000 12.1550671685805014  5.6520639999999993   T   T   T
  6.2397179519148596  4.4239037908814707  9.3397682499999988   T   T   T
 10.7319197487570595 10.1178817449697203 10.3217790000000011   T   T   T
  9.1580489932016391 11.5648240039738823  5.6471822500000002   T   T   T
  7.6902577687723186 11.4851713829991908  5.2047654999999997   T   T   T
 10.0574144107915782  1.6213536022623602  5.4159044999999999   T   T   T
 10.4780655917023804  2.4799584711300602  4.1682567500000003   T   T   T
  7.5574761279977398  5.4439682961297304 11.4853145000000012   T   T   T
 11.3592985877935195  2.6088392472564901 11.2447984999999999   T   T   T
  8.4956169133751995 10.1300810741515495  7.1699902499999997   T   T   T
  9.5392380226155602  9.9623415924068723  8.4230552500000009   T   T   T
 11.2963656926542804  4.0512550272729611  5.3881304999999999   T   T   T
 12.3493544087759997  4.6385158186435502  6.4435787499999995   T   T   T
  8.5730969732217588  9.2561410006102207  5.1306804999999995   T   T   T
  9.8372648940774603  8.3271203834963714  5.5673710000000005   T   T   T
 10.5903830240812802  6.0828822906861602  9.5114352499999999   T   T   T
  9.4321301084257794  6.6829432925288099  8.6644222500000012   T   T   T
  0.0131186699561400  3.2556187902697808 11.1764267499999992   T   T   T
  7.5528516051046797  5.6090786831423110 13.0087717500000011   T   T   T
  2.0426907743545799  5.0931919023378596  8.2002959999999998   T   T   T
  1.4234715249925800  1.7021299586870102 11.6455027500000003   T   T   T
  8.1079898628468605  3.2292229497464704 12.2462304999999994   T   T   T
  1.3826171128589400  0.2716827499530300 13.9356627499999988   T   T   T
  2.5634660319811200 12.2126218486550400 13.1156560000000013   T   T   T
  5.6462396479011598  6.1513604777074198 10.1888877500000010   T   T   T
  3.5340558111969598  5.4702995450675704  7.5802949999999996   T   T   T
  6.9937400142430795  6.5142501200982599  9.2593585000000012   T   T   T
  6.7633870733368804  9.7452033917481611 11.6269314999999995   T   T   T
 11.8535740322407790  9.3032468537090107  9.3109210000000004   T   T   T
  8.3384805702092990  2.6849581323027003  5.3126862499999996   T   T   T
  6.9495908584120194  3.3481555995645902  5.4340637500000000   T   T   T
  8.7833535524133008  2.0389597480567505 13.0851682500000006   T   T   T
  5.4920030581747792  9.4161113769842117  6.4725729999999997   T   T   T
  5.9925252383408996  8.2337978750452496  7.4277952499999991   T   T   T
  3.9662399394239998  1.3834000883926501  9.7412832500000004   T   T   T
 10.2162912718070391  0.8614654189140301 10.0613832500000004   T   T   T
  6.7473645527975394  1.1374182127725301  5.4142237500000006   T   T   T
  2.3673814727787001  2.5729941885961498 10.8286242500000007   T   T   T
  0.8953552101773999  4.7900755502840999 13.8997504999999997   T   T   T
  1.3271905690486798  3.4695089395776599 13.1562184999999996   T   T   T
  0.3614830486705200  8.8690725534995405 13.4221100000000018   T   T   T
 12.5754497772199798  8.6805986492174103  5.5568572500000002   T   T   T
  0.8776675848393599  2.6680195086281699  7.7324609999999998   T   T   T
  0.5939932637599800  7.8068343987792597 10.5053684999999994   T   T   T
 11.2695112204751986  7.6140390549454500 12.8612382500000013   T   T   T
 11.1074863447203587  9.1415690549762711 12.8103102500000006   T   T   T
 12.0215000752522201  0.3932470093424401  8.6498624999999993   T   T   T
 11.2630533538210802 12.1973084018190594  5.6927017500000003   T   T   T
  6.3831137555354394  0.6067558088848800  3.9396439999999999   T   T   T
  2.9349709501643999  1.7386884751536003  5.5027600000000003   T   T   T
  3.1762311277254596  1.8084494654564702  7.0454509999999999   T   T   T
  2.9791285563543002 12.2676861348703508  3.9075199999999999   T   T   T
  3.5331029692198794 11.8491025507574115  5.3598165000000000   T   T   T
  0.0000000000000000  0.0000000000000000  1.7000000000000002   F   F   F
  2.0713345460001600  1.3066379021339702  1.6494037499999998   T   T   T
  0.7199068113694800  1.2717111627755100  1.6382692500000000   T   T   T
  2.7918029221252798  0.0789055639106100  1.6066332499999998   T   T   T
  4.2049068811070995  0.1022096844271500  1.7350307500000000   T   T   T
  6.4302996630478191  1.2251328897003899  1.9386275000000002   T   T   T
  4.9269049002180001  1.3319429788502999  1.8315345000000001   T   T   T
  7.0634307637752594 12.3102743373325207  1.9163147500000002   T   T   T
  8.4932729630830206  0.0039254835329400  1.9351449999999999   T   T   T
 10.6821167907190802  1.2393898000044601  1.8476522499999999   T   T   T
  9.2419099702225793  1.2279920497335601  1.9682115000000000   T   T   T
 11.4081846818973602  0.0519453159193200  1.7620127499999998   T   T   T
 12.7265154338095190  2.4730220101545903  1.6796365000000000   T   T   T
  2.0716515624923999  3.7535651135631007  1.6498195000000000   T   T   T
  0.6438119701939800  3.7658521084001104  1.5874795000000002   T   T   T
  2.8092361404479398  2.5508910214909806  1.7191475000000001   T   T   T
  4.2077820516845401  2.5738399358425803  1.9015947500000001   T   T   T
  6.4020895484536204  3.7211972146302905  2.0957627500000000   T   T   T
  4.9734347525986200  3.8466074771520899  2.0741952500000003   T   T   T
  7.1249753673856793  2.4691081695119101  2.0056252500000000   T   T   T
  8.5538393736398390  2.5078226475352801  1.9244382500000001   T   T   T
 10.6355391810074398  3.6917152691449799  1.7013680000000000   T   T   T
  9.2121175899534595  3.7088727194266204  1.8049487499999999   T   T   T
 11.3378975418882586  2.4892301667463204  1.7151360000000000   T   T   T
 12.7509837039022198  4.9735077161492400  1.7394627499999999   T   T   T
  2.0535001917040798  6.2485605060276601  1.7621682500000000   T   T   T
  0.6489013908589800  6.2134893568373109  1.7267830000000002   T   T   T
  2.7883057539229199  4.9944104745705911  1.7790835000000000   T   T   T
  4.2020859976834197  5.0261348594864401  1.9859782499999998   T   T   T
  8.5671040043395799  4.9145330990051104  2.0274695000000000   T   T   T
 10.5982020386873401  6.1671721647393305  1.9299592500000000   T   T   T
  9.1787180587813193  6.1727533080875405  2.0526355000000001   T   T   T
 11.3332703302446589  4.9640040162181203  1.7386670000000000   T   T   T
 12.7044862445638191  7.5056596755789906  1.8218649999999998   T   T   T
  2.0758492142282998  8.6698146827878517  1.8536502500000001   T   T   T
  0.6211845979709999  8.6445482513676009  1.7610214999999998   T   T   T
  2.7593114204212199  7.4211699739703407  1.9114452500000001   T   T   T
  4.2044958863817001  7.4537368485306006  2.0076617500000000   T   T   T
  6.4278681363094794  8.6936391746174095  1.9816612500000002   T   T   T
  4.9630159722918599  8.6326906960127694  1.9599675000000001   T   T   T
  8.5314826689712184  7.4662963680744898  1.9965944999999998   T   T   T
 10.6679733226999787  8.6603704958183112  1.9396045000000002   T   T   T
  9.2900569139994005  8.6641458192970511  1.8800355000000002   T   T   T
 11.3199648561438604  7.4208387077186710  1.8551647500000001   T   T   T
 12.7786093353433188  9.8899763510424901  1.8155692500000000   T   T   T
  2.1133675271204999 11.1452053111204510  1.6962647500000001   T   T   T
  0.6934982876728200 11.1374703553023906  1.7264774999999999   T   T   T
  2.8095581503340399  9.9370693663798804  1.7945012499999999   T   T   T
  4.2207364517862596  9.8883581301988208  1.8321090000000002   T   T   T
  6.3299333427119997 11.1673593449419517  1.7112720000000001   T   T   T
  4.9072948182438596 11.1658519564237206  1.7632302499999999   T   T   T
  7.1061077646677999  9.9264237773452511  1.7692792499999999   T   T   T
  8.5350964777327203  9.9127514550756910  1.8481967500000001   T   T   T
 10.6106957661965389 11.1309377122027815  1.7296190000000000   T   T   T
  9.2283957978655788 11.1425050717562115  1.7949822500000001   T   T   T
 11.3546078704228783  9.9069333451076105  1.8438485000000000   T   T   T
  4.8237860675436597  6.2195868118706699  2.2158312499999999   T   T   T
  7.1735376591030589  4.8343797864412199  2.2300127499999998   T   T   T
  7.1401756424027401  7.6119110598817805  2.1753262499999999   T   T   T
  1.3531746542672400  3.9284634300109800 14.0276069999999997   T   T   T
  0.8647090875939600  0.8826229872196200  8.3560862500000006   T   T   T
  6.3286953651419395  0.4173986002839300  4.8886902500000007   T   T   T
  1.5658188439382998  2.6301137576737506 11.4292584999999995   T   T   T
  4.5551413498399196 12.0328568258868920  8.8823137499999998   T   T   T
 12.1138819588058997  4.6176632796385508  5.4605480000000002   T   T   T
 10.3275700782630597  0.1743571967851200  6.0501515000000001   T   T   T
  1.3018556250319200  9.0988320344298899 13.2658765000000010   T   T   T
  8.8354952112781202  8.3474623135587898  5.4400217499999997   T   T   T
 11.2599874099910409  7.1989121281386312  6.1570982500000007   T   T   T
  3.5043069630794399  9.5384303944377304 15.1143715000000007   T   T   T
  5.2085417885667598  2.0476439442715204 12.7804099999999998   T   T   T
  3.2055703895107199  2.3687305012511404  6.2526385000000007   T   T   T
 11.1321055689505197 10.0497504268584912  9.3929237499999996   T   T   T
  3.8194720585190400  6.2689898215872306 10.3490402499999998   T   T   T
 10.2263382363248390  6.1297230130758305  8.6098617500000003   T   T   T
  7.9287060254114996  1.8601152692560501  8.3612330000000004   T   T   T
  7.2730157955105001 11.9490349106581508  9.2160740000000008   T   T   T
  2.7345014229384597  5.7972366953491203  8.0890769999999996   T   T   T
  8.5965663084709796  9.9012485923688089  8.0928835000000010   T   T   T
 11.8498086291631193  3.4419912616941897 11.0581962499999999   T   T   T
  1.6002374115650999  0.0365446149864000 13.0129142499999997   T   T   T
  5.5499019721244398  8.9704981392952803 12.2232524999999992   T   T   T
  2.4397535467779599 10.4012143075436718  9.1278904999999995   T   T   T
  8.0894707734132592  5.1618773097206709 12.3012252499999999   T   T   T
 10.8448630198330793  5.9423919607937110 11.1669645000000006   T   T   T
  6.6070065251441994  5.9021724799470006 10.0438942500000010   T   T   T
  5.1602874228040800  7.3410292550693104 15.8698119999999996   T   T   T
  4.7797079715482997 11.1693035412181505  6.1966122499999994   T   T   T
  7.0438561477010992  6.4592758833628512  5.2670312499999996   T   T   T
  7.7745853080298195  7.3695880211867397  8.1520434999999996   T   T   T
 10.1452371977153391  3.3448087194676805  8.6167230000000004   T   T   T
  0.6024303068830200  9.1535358051716411  5.3048620000000000   T   T   T
  1.0540900795572001  3.6041804945005502  7.4421224999999991   T   T   T
  0.3948131844715800 11.6296689383273097  6.1911170000000002   T   T   T
 10.1324593588990801 10.6502965276893615 11.6888059999999996   T   T   T
  8.2437546083276985  2.2106137241361004 12.2559070000000006   T   T   T
  3.0759018097184998  8.6191773948657016 11.1296925000000009   T   T   T
  5.7545728641227401  3.7028290270611302  8.8800829999999991   T   T   T
  2.7040401839635795  8.3581154810442584  6.8897127500000002   T   T   T
  8.3977405040751592 10.8829570051486204  5.3837875000000004   T   T   T
  5.9401628458603204  6.4359331486758906 13.4823012500000008   T   T   T
  7.5729154457413799 10.2926559140108100 11.3787504999999989   T   T   T
  4.8167216955891599  4.8247978771030207  6.2594057499999991   T   T   T
  9.9650723463530397  2.5041640078975802  4.9981587500000000   T   T   T
  4.4917061704926597 11.4584126421209707 13.6195804999999996   T   T   T
  7.5213231882368996  2.6351059797280505  5.8524319999999994   T   T   T
  3.8986694617462199  4.6549049117432411 12.7874482500000006   T   T   T
 11.1123591289132797  0.1281152306909100  8.4405937499999997   T   T   T
  5.3928151787899195  8.4568002576155408  6.6969329999999996   T   T   T
  3.9014579521276795  2.2450509874265103 10.2759619999999998   T   T   T
 10.3231988100637189  0.9839293245266402 11.0197505000000007   T   T   T
 11.5242816012853186  8.4360858458438397 13.3570009999999986   T   T   T
  0.2990611441696200  7.8150205026096904  9.5575987500000004   T   T   T
  2.9311712335084201  0.1924420971980400  4.8419255000000003   T   T   T
  6.3953210670942600  6.2030287932401711  3.2811029999999999   T   T   T
