SYSTEM = Opt
NCORE = 16 
LWAVE = .FALSE. 
LCHARG = .FALSE. 
LVTOT = .FALSE. 
LVHAR = .FALSE. 
LELF = .FALSE. 
ENCUT = 400 
ISMEAR = 0; 
SIGMA = 0.1 
EDIFF = 1E-5 
NELMIN = 5 
NELM = 500 
GGA = PE 
LREAL = Auto 
IVDW = 12 
ISYM = -1 
ALGO = F 
PREC = N 
ISPIN = 2
NSW = 100000   
POMASS =3.000        12.011       14.001       16.000       18.998       39.098       55.847
POTIM = 0.5       
SMASS = 0       
MDALGO = 2
TEBEG = 300
TEEND = 300
INCREM = 0.0001
LBLUEOUT = .TRUE.
