vasp 
1.0000000000000000
    12.8035739999999993    0.0000030000000000    0.0000000000000000
     0.0000000000000000   12.3205950000000009    0.0000000000000000
     0.0000000000000000    0.0000000000000000   25.0000000000000000
 H   C   N   O   F   K   Fe 
 106  56   3  53   1   1   1
Selective dynamics
Cartesian
  4.4378343646732192  7.9600234173605413  7.1922062499999999   T   T   T
  3.1948212769947597  8.8895977269704716  7.0395957499999993   T   T   T
  4.4700231898879190  7.6078386007979413 12.0972495000000002   T   T   T
  9.8538378402630595  4.8635428932083702 11.9943257499999998   T   T   T
  7.1035238753988592  4.6451783065069199  9.2315410000000000   T   T   T
  4.6495919068447797  0.8318154651572101  9.9588677499999996   T   T   T
  3.5438216092297194 12.0829926629525417  9.9483167500000000   T   T   T
  7.8458957096729991  6.1162148941930505  9.1720452500000000   T   T   T
  0.5199813080028000  4.4981414279244003  4.1602589999999999   T   T   T
  4.7165296318954804  7.1244743649858604 13.4883854999999997   T   T   T
  8.7938572204156795  5.8367220491166600 12.5199339999999992   T   T   T
  6.2889660030556795  5.0012714021048099  5.7285857500000006   T   T   T
  9.3598326792629400  9.9345018107025300  6.0940777500000003   T   T   T
  0.6534104255145600  0.0538505169025200  7.8541457499999998   T   T   T
  0.7180514454611400 10.0714610641381803  8.6218434999999989   T   T   T
  7.4998769457154202  1.3539543246897900 11.7334259999999997   T   T   T
  0.7546681306722599  2.7842880723815702 11.7934275000000000   T   T   T
  1.8270219963974998  2.4258325630965003 12.8248302499999998   T   T   T
  2.1894066727490999  7.2570181178370010  7.5796810000000008   T   T   T
  1.3164209708143197  6.1700778967610397  6.6746467500000000   T   T   T
  1.3923733082112000  4.6447182725778005 12.8466737500000008   T   T   T
  2.2967030555481602  5.6664792268873203 13.7622684999999993   T   T   T
 11.1367154957692200  6.1028070385191899 13.9398757500000006   T   T   T
  6.2098595052038998  6.6374532991026012  5.8564425000000000   T   T   T
 12.6842176747788589  6.1882577501779208 13.9475674999999999   T   T   T
  3.4468280063569803  4.0855454697324598 11.0049882500000002   T   T   T
  3.7087100043096597  7.5494978177650198  9.4685812499999997   T   T   T
  6.9102922085551199 10.4398463342442920  9.4353217500000000   T   T   T
  6.5393108285126997  8.8832957870382003  9.5732265000000005   T   T   T
  6.7971787779806396 11.9639660050395307  8.0421552499999986   T   T   T
  8.3881492187560198 11.7639547010307908  8.3899002500000002   T   T   T
  2.7543050949514800  4.1216074426208102  9.5829730000000009   T   T   T
  3.2076626215380597  0.4956711018548701 11.9104967500000001   T   T   T
  3.5745916704094798  1.1482056287553601 13.3172547499999983   T   T   T
 10.2295661453659790  5.2024892028164107  6.0784377500000000   T   T   T
 10.2857103294989383  5.3532519015723299  4.4184727500000003   T   T   T
 12.0984420008835585  5.7486026014118705  9.6309729999999991   T   T   T
  4.6405758861054593 10.2834713322166209 10.1701805000000007   T   T   T
  3.5452119493303798 10.3121730104684097 11.3397252500000008   T   T   T
  3.3258626559912599  6.2406264641803206 10.3470750000000002   T   T   T
 10.2691722090346182 11.1912922844951410  7.6618329999999997   T   T   T
  3.1917247326228599 10.7416040630132716 13.4267147499999986   T   T   T
  3.8987972414147398  9.2691822408321300 13.3177374999999980   T   T   T
  6.3059609550403195  2.8604297877609901  5.7286650000000003   T   T   T
  4.7822642050974000  3.5720177155642503  6.2474302499999999   T   T   T
  5.6865662967145196  4.6412256508301404 12.5773589999999995   T   T   T
  5.1994474099545602  3.2567565803650202 13.2514760000000003   T   T   T
  2.6143983932816397  3.7071416083917303  7.0077530000000001   T   T   T
  2.4910866599446799  4.2260963758460104  5.5195280000000002   T   T   T
  7.7601115078015193  9.5983429953318904 11.2534634999999987   T   T   T
  7.0470428292339600  0.7511091069137701  9.8392640000000000   T   T   T
  4.4132010565116602  5.0834010345127201 14.0287567499999994   T   T   T
  4.2155275737758400  5.4965183005207807 15.6096469999999989   T   T   T
 10.5779895485564985  0.9630512735574001  7.3407302499999991   T   T   T
 10.8575454720230393  2.4825379998150301  6.9747977500000005   T   T   T
 11.8506286980778199  8.9010341297106894  4.4495914999999995   T   T   T
  0.4163694096937199  9.4180206191753406  5.1376472499999997   T   T   T
  6.2059951304992200  2.0940658390313400  9.9254654999999996   T   T   T
  9.8320827755366995  9.2882697111841512  9.9562232500000007   T   T   T
  8.9504559415093201 11.9244102536778911  5.4543282499999997   T   T   T
  9.5634672499816791  1.0439462145258600  5.4365095000000005   T   T   T
  7.2285327224695202  5.5422259498277402 11.0591510000000000   T   T   T
  9.2493631867194601  2.7283773545707204 11.4217487500000008   T   T   T
  7.2869117704441795  7.3895546631771607  7.6037887499999997   T   T   T
  8.7744810597385197  7.7377176543899404  8.1894827499999998   T   T   T
  3.0753497196076198 12.2526726499667422  5.5381042500000000   T   T   T
  1.5062650680491398  0.3330940454667300  5.8658394999999999   T   T   T
  8.3181684682727397  8.0293518218011801  4.4514040000000001   T   T   T
  9.3409270499302792  7.1674028656254611  5.3070275000000002   T   T   T
 10.9428835973763583  4.6040112931786199  8.1051057499999999   T   T   T
  9.2308784108641788  4.6098852285294605  8.0812997499999994   T   T   T
  9.2253644236853383  3.8327070228754798 10.2855559999999997   T   T   T
  6.6165227815196994  6.7260137080417497 11.9938987499999996   T   T   T
  1.6260384056754600  2.1371730493372203  8.0465107499999995   T   T   T
 11.2340266272771601 11.2532365196393709 11.1585657500000011   T   T   T
  5.9659776678305994  1.5063672409954501 14.9530634999999990   T   T   T
 11.7767045748382788  8.1572352336194101 13.6895154999999988   T   T   T
 12.2075668620855602  9.6706038342644707 14.0554020000000008   T   T   T
  5.1790966412245192  4.1690113768292409  9.2903950000000002   T   T   T
  2.8828746159515397  1.8893115562063802  8.7978462499999992   T   T   T
  5.8255320637310994  3.5427689906878506  7.9479762500000000   T   T   T
  8.7803710878857384  9.1674443465358308 12.2230802500000006   T   T   T
 11.1838277827310986  9.0900025777567510  9.0220369999999992   T   T   T
  7.5765756034407588  1.1625587043680701  5.1083379999999998   T   T   T
  6.3641692033378199  1.7021399871681904  4.1204852499999998   T   T   T
  6.3929015757154799  1.0331144365674600 13.4381570000000004   T   T   T
  5.4801967545536394  9.2909682570660301  6.0686464999999998   T   T   T
  4.1254631371161601  9.9383182438063198  5.4368862499999997   T   T   T
  2.0106164130914399 10.5243108733150805  9.5033190000000012   T   T   T
  8.5736225599344600  0.3821322855460200 11.9823782500000000   T   T   T
  5.8938664026337202  0.5601886501815900  6.2855010000000000   T   T   T
 12.5302255052801392 11.3038410799887306 10.0652687500000013   T   T   T
 12.2370251971090198  1.0957712061264899 11.0038830000000001   T   T   T
 11.6987685797215804  2.5860573145830603 10.6047022500000008   T   T   T
 12.4140348637304996  5.3610971695075502  5.0384342499999999   T   T   T
 12.5577822534931194  1.2680150474721901  6.9968395000000001   T   T   T
  0.3914011600363200  5.5221942637070400  8.4393782500000007   T   T   T
 11.1502173766951795  6.3161807733665105 11.5362582500000013   T   T   T
 11.4231438656159998  7.5474015512082007 10.5696237499999999   T   T   T
 10.7748727947050398 11.7460647706753818  9.1327097500000001   T   T   T
 10.7606865627487807 10.4283162683621100  5.6534035000000005   T   T   T
  5.2917419731335595 11.5011921531241210  6.5286755000000003   T   T   T
 12.3012198844659597  9.2311788702037205  7.1093692500000003   T   T   T
  0.1939368876996600  8.0140911077203203  7.8636049999999997   T   T   T
  2.0753573009152197 10.5578063972871909  4.8893407499999997   T   T   T
  2.3700178567010401  9.1431476168362806  4.2780552499999995   T   T   T
  0.0000000000000000  0.0000000000000000  1.7000000000000002   F   F   F
  2.1514395945881999  1.2309900836331000  1.6145304999999999   T   T   T
  0.7501998113820000  1.2753797502406501  1.6036345000000001   T   T   T
  2.8666144610787598  0.0161091104020200  1.6971735000000001   T   T   T
  4.2870325897438200 12.3055774455996918  1.6186365000000000   T   T   T
  6.3977025318582594  1.2312098923403703  1.6090529999999998   T   T   T
  4.9710247358646003  1.2456168922312501  1.6607725000000000   T   T   T
  7.1044421477261395 12.3023291648442310  1.5575109999999999   T   T   T
  8.5537922564875206 12.3142648344351908  1.5966660000000001   T   T   T
 10.7317361455059004  1.2165697287777002  1.4905247500000001   T   T   T
  9.3085163387781602  1.1952649920475200  1.5668337500000000   T   T   T
 11.4101132842489807 12.2823439509071104  1.5646929999999999   T   T   T
  0.0197518175383200  2.4826318074690903  1.5798967500000001   T   T   T
  2.2060989482443802  3.6608904919170602  1.6534984999999998   T   T   T
  0.7693814857701000  3.6942439772406002  1.6759459999999999   T   T   T
  2.9347616117294999  2.4904389426817501  1.6274217500000001   T   T   T
  4.3434369425004595  2.5228126217579701  1.7454069999999999   T   T   T
  6.4748587893183602  3.6385664507824207  2.1120369999999999   T   T   T
  5.0744004082333793  3.6574580301908104  2.0536889999999999   T   T   T
  7.1361302251616996  2.4001494322927504  1.7812084999999998   T   T   T
  8.5644448300555194  2.4381812260184401  1.7121700000000000   T   T   T
 10.6677624478361999  3.6853527982312504  1.6538035000000000   T   T   T
  9.2636330260139399  3.6650237338921805  1.7649825000000001   T   T   T
 11.3870664669417589  2.4825471179212202  1.5472170000000001   T   T   T
  0.0129846165363600  4.9068616475114704  1.7293485000000002   T   T   T
  2.1278258350242600  6.2041400966417708  1.8354042500000001   T   T   T
  0.7280386172883599  6.1216413109501202  1.7224719999999998   T   T   T
  2.8636125351187198  4.9693441184822404  1.7464057500000001   T   T   T
  4.2802178874823200  4.9193970046883404  2.0268199999999998   T   T   T
  8.5746873051482986  4.8657715123326009  2.0175450000000001   T   T   T
 10.6834205786594989  6.1334333441529001  1.7379827500000000   T   T   T
  9.2184084980026206  6.1457174965431909  1.9296117500000001   T   T   T
 11.3728053340776007  4.9436640784020005  1.7425400000000000   T   T   T
 12.7606553956660793  7.3571473598159107  1.7272642500000002   T   T   T
  2.0713595129694600  8.6153693564011196  2.0444450000000001   T   T   T
  0.6677034392779799  8.6206719348050100  1.8984977500000000   T   T   T
  2.8750279456256398  7.3906520104747804  2.0370300000000001   T   T   T
  4.3151998123651198  7.3774169487420904  2.0821125000000000   T   T   T
  6.4911015313304992  8.7101702245689019  2.0527465000000000   T   T   T
  5.0537194353298798  8.6415706629057603  2.0698782499999999   T   T   T
  8.5231182221127604  7.4375307337324204  1.8682842500000001   T   T   T
 10.6423399273732802  8.6303242547856609  1.7067530000000002   T   T   T
  9.2398151774804393  8.6480710040224800  1.6940930000000001   T   T   T
 11.3736826349680786  7.3950528238238107  1.7874194999999999   T   T   T
  0.0091471293370800  9.8696387098115110  1.8710235000000000   T   T   T
  2.1341784563000998 11.0860450221613505  1.8028377500000001   T   T   T
  0.7376201718912599 11.1094179725029214  1.8423022500000001   T   T   T
  2.8011241800687596  9.8418250047562204  1.9609387500000000   T   T   T
  4.2588407842604399  9.8540654878278300  1.9941505000000002   T   T   T
  6.4098229071496196 11.1134578693893911  1.6453927500000001   T   T   T
  4.9723621972046397 11.0386587075097804  1.7092320000000001   T   T   T
  7.1519317560138003  9.8654264935324516  1.6925672500000000   T   T   T
  8.5592726983024789  9.8719260603543599  1.6705040000000000   T   T   T
 10.6742245396697388 11.0149916876919303  1.7174860000000001   T   T   T
  9.2901918636693601 11.0759489856337208  1.6180537500000001   T   T   T
 11.3753811570949193  9.8341403177721904  1.7973717499999999   T   T   T
  4.9103808636850799  6.1572463463439604  2.3142242500000001   T   T   T
  7.2632320724741399  4.7205180431173801  2.4035327499999997   T   T   T
  7.2136017066136793  7.5644222061003612  2.2289539999999999   T   T   T
 12.5038822798108793  2.0670157234808100 10.7720380000000002   T   T   T
  1.3271106747469199  6.7132878813717900  7.5079069999999994   T   T   T
  5.5947809316735002  0.0245348189104500  7.0744312499999999   T   T   T
 11.7385302068143194 11.8424628102209422 10.4906392500000010   T   T   T
  3.7020895322657394 10.5847511804754308 10.3930030000000002   T   T   T
  2.1776363471708997  0.0434314700577000  5.1621454999999994   T   T   T
  9.9518374199449795 10.6601565343404605  6.1673925000000001   T   T   T
  8.7537890757613788  7.9915036720610102  5.3384962500000004   T   T   T
 10.5287207556257982  5.7055949790565501  5.2727984999999995   T   T   T
  1.4590438226725200  5.6362181708243400 13.2545780000000004   T   T   T
  2.9292400704419999  0.5754797852314500 12.8135995000000005   T   T   T
 12.7608662705298581  8.9794970665979701  7.9201369999999995   T   T   T
 10.3427338630942192  8.6643553928583898  9.3394547499999998   T   T   T
  3.4587666989332799  4.5869403408534604 10.1552487500000002   T   T   T
 10.0911452984588390  4.3213743033951308  7.6328647499999995   T   T   T
  7.5057528899312400 11.7227143826631313  8.8044962499999997   T   T   T
  6.4266304148108997  9.7893072235584011  9.9739977499999988   T   T   T
  2.3787781900675800  2.6317731626865601  8.3102060000000009   T   T   T
  7.9093134761596193  7.4973686396783412  8.4134669999999989   T   T   T
  9.8330100103657792  3.3415980224588102 10.8829665000000002   T   T   T
 11.7783422799886193  9.1387284525750907 13.3257504999999998   T   T   T
  5.0269253960200793  7.8562980677625598 12.9083004999999993   T   T   T
  3.5804627492671801  8.2050062970680102  7.6045765000000003   T   T   T
  7.0991077946905206  5.8122741417740400 12.0151614999999996   T   T   T
  9.7796899105499993  5.6748108112963509 12.5097204999999985   T   T   T
  5.9318622888361192  3.6412168531554898  8.9842147499999996   T   T   T
  3.9914633643112198  5.7601081375991408 14.6821842499999988   T   T   T
  3.6461621126405999  0.7568396044369500  9.9999634999999998   T   T   T
  6.4469274085301391  5.8710549316771798  5.2261972499999994   T   T   T
  7.7943203528861993  5.2307098175041506  9.6305077499999996   T   T   T
 10.9963588765090190  1.5642000605324402  6.6327377500000004   T   T   T
  0.5452884682639799  5.1510533778104106  4.8845872500000000   T   T   T
  0.6193773735008999  0.8141223928312500  7.1668887500000000   T   T   T
 12.2371965089291379  9.3127435350154819  5.2265199999999998   T   T   T
 11.8719460086091200  6.5449082300292902 14.3882895000000008   T   T   T
  5.6917796559758402  1.5100215884311801 13.9546347500000003   T   T   T
  3.4240603069629594  7.2907661185105201 10.3481970000000008   T   T   T
  6.5207692047888592  1.2796819756429201 10.4937822500000006   T   T   T
  3.0837028993209601  4.2036050221172703  6.2879614999999998   T   T   T
  4.9199401400692198  4.1752436890871403 12.9142570000000010   T   T   T
  8.6642321727750602  9.9287659179203711 11.6063865000000010   T   T   T
  5.8276886977356597  3.6320382318835205  6.3968739999999995   T   T   T
  8.8347908866723799  0.4965102208049100  5.0246232500000003   T   T   T
  3.2808402964133996  9.8889966096169513 12.8650579999999994   T   T   T
  6.6783671167974594  1.7013078045955203  5.0614652500000004   T   T   T
  1.5177174808849201  3.2288586872657405 12.3136969999999994   T   T   T
 10.2677330873170209 11.9937740337071403  8.2747969999999995   T   T   T
  5.0612740561328398 10.0754390466568804  5.5906897499999992   T   T   T
  1.0851616649046600 10.8286325563268697  9.2346927499999989   T   T   T
  8.2416360009379197  1.1565116657601902 12.4155955000000002   T   T   T
 11.8500136143828598  6.8006478009529205 10.9880630000000004   T   T   T
 12.2552285504077805  5.2128489569304604  8.7890132500000000   T   T   T
  2.1594827997749997  9.5769166611697507  5.1037770000000000   T   T   T
  5.9042535581126998  7.6707228841140003  6.8319572499999994   T   T   T
  1.2428429281800000  8.0234181671100000 12.0452500000000011   F   F   F
  6.4760451684852001  6.2119644468843003  3.4226779999999999   T   T   T
