H  C  N  O  F  K  Fe
 1.0000000000000000
    12.8035739999999993    0.0000030000000000    0.0000000000000000
     0.0000000000000000   12.3205950000000009    0.0000000000000000
     0.0000000000000000    0.0000000000000000   25.0000000000000000
 H   C   N   O   F   K   Fe 
 106  56   3  53   1   1   1
Selective dynamics
Cartesian
  4.7221078930158003  8.0521408766050513  7.3030312500000001   T   T   T
  4.1908027200601792  9.4335065201810107  7.9370467500000004   T   T   T
  4.6759251455263202  8.3640605069573404 11.3837884999999996   T   T   T
  9.7780929207649798  5.1724381801793102 12.0178680000000000   T   T   T
  8.2978902958072798  5.3881611025038607  8.3103382500000009   T   T   T
  5.3421149462860198  1.7416485692954402  9.5016627500000013   T   T   T
  4.3746777910961994  0.5016341736598501  9.1558347500000004   T   T   T
  8.8344439098169794  6.7855976107895106  8.7834732500000001   T   T   T
  1.0403319991155000  7.7131456188319500  3.6291412500000000   T   T   T
  4.8495244521771594  8.1023648263298718 12.8699394999999992   T   T   T
  8.7683308629676198  6.3830816621474407 11.8259860000000003   T   T   T
  6.8152004485643394  4.6602117057630306  5.5000387499999999   T   T   T
 10.3847919392195998 11.1976902733635004  5.9550925000000001   T   T   T
 12.5369865605665805  2.8081612466684103  9.3024234999999997   T   T   T
  1.1692657817958600 10.4557640602484696  9.9345007499999998   T   T   T
  7.2866685025381797  2.3507834307252602 11.0262694999999997   T   T   T
  1.0450802045334000  2.2661777976618001 12.0039877500000003   T   T   T
  2.6386915104820199  2.4116107208520901 12.5121427499999989   T   T   T
  2.6075232581508598  7.8349600784227205  6.8130575000000002   T   T   T
  1.3134300559279199  7.5239708317772402  5.8019375000000002   T   T   T
  1.5826654025002798  4.5427411219679099 12.3274977499999991   T   T   T
  2.1760689336418202  5.7371926375943403 13.0913389999999996   T   T   T
 11.2937331498041402  6.8169334026999309 13.6056272499999995   T   T   T
  6.4407645362209793  6.1261668951864605  6.2322502499999999   T   T   T
 12.6616548325688392  5.9360607095089799 13.5317440000000015   T   T   T
  4.2783426760342795  4.8109894441094108 11.2448897500000005   T   T   T
  3.5456634033496197  8.2006731356526910  9.4778055000000005   T   T   T
  7.1834966630674799 11.7533722597236601  8.9961095000000011   T   T   T
  7.4050214116649400 10.0322509821063317  8.9193247499999995   T   T   T
  8.1293956460744994  1.1224934910186002  7.2628717499999995   T   T   T
  9.2855104929077399  0.8938817951217302  8.3713505000000001   T   T   T
  3.3414677800182000  4.3889032583415011  9.8820092499999994   T   T   T
  4.2578244365563203  1.1557993411596901 11.2879932499999995   T   T   T
  4.7500387616610595  1.4566784892781202 12.7269255000000001   T   T   T
 10.5098237046877188  7.2346937939849401  5.5326329999999997   T   T   T
  9.9547065728426407  7.7505345530827805  4.0821407499999998   T   T   T
 12.6189821848914594  6.6082025049367195  9.0774342499999996   T   T   T
  5.5164400875469202 10.8291218597976915  9.0781390000000002   T   T   T
  4.0822702802271600 10.8522088403165711  9.8652699999999989   T   T   T
  3.4787222213339404  6.8424002127282293 10.1523205000000001   T   T   T
 11.0794123321177800  0.0022625627532600  7.5757139999999996   T   T   T
  3.7904445637606798 11.6554498397580613 12.2622415000000000   T   T   T
  4.3201448087154004 10.1401255697257504 12.2093002500000001   T   T   T
  7.0825046320702798  2.4097911477569101  5.7169480000000004   T   T   T
  5.6916580220228390  3.3668481115528799  6.1560357500000000   T   T   T
  5.8705503261652794  5.4572458060983600 12.4834947500000002   T   T   T
  5.5254566204291997  4.0086060587071506 13.1160837499999996   T   T   T
  3.1816111895202597  4.0054903702819207  7.5519352499999997   T   T   T
  3.1991773089410400  5.2651052547331805  6.3833827499999991   T   T   T
  8.4124984156105196 10.9878817829514919 10.6983665000000006   T   T   T
  7.3478186280336590  1.8802165535089201  8.8743897500000006   T   T   T
  4.0942571142416995  6.0236411301145507 13.7845815000000016   T   T   T
  3.0105376439123996  7.0992938724303007 14.4568954999999999   T   T   T
 12.4026778375210185  3.5030097540039900  6.5985612499999995   T   T   T
 11.6007700243255787  4.6816878705647103  6.0786584999999995   T   T   T
  0.5461299191472601 10.0275128454605706  4.9527532499999998   T   T   T
  1.3268325811196400 11.5193690299708802  5.0345827500000002   T   T   T
  6.5508512019018594  3.3679305539348703  9.0236175000000003   T   T   T
 10.5886673451652804 10.1866903863900600  8.7908392499999994   T   T   T
 10.4268457901655598  1.2611036800259701  5.5001292499999996   T   T   T
 10.8152326047750584  2.7965600174048704  5.1900645000000001   T   T   T
  6.5464878719183996  5.8139539254181498 10.2612755000000000   T   T   T
  9.1349830985691600  3.1232868951863701 11.0160382499999994   T   T   T
  6.9920169092541595  8.2624789759243207  7.9446582499999998   T   T   T
  8.3631933885654011  9.0972702054634507  7.4537432500000005   T   T   T
  2.3200846863154800  3.3327742232646598  5.7281492500000004   T   T   T
  0.7165028531858399  3.1387138805683805  5.2323907500000004   T   T   T
  8.4826394668402791 10.2576992725922107  5.4487187500000003   T   T   T
  9.6594614058679795  9.1861326774230108  5.4685622500000006   T   T   T
 11.7190655734408207  6.2795920660637403  7.3580524999999994   T   T   T
 10.1251376351071798  6.0704408448437102  7.4298802500000001   T   T   T
  9.6903541252866603  4.1402158767844206 10.0202805000000001   T   T   T
  6.4066501815124193  7.0301066420661904 11.3794302500000004   T   T   T
  1.7956223834841600  3.1461037798855203  8.9497974999999990   T   T   T
 10.6482311078421592 11.2406507713834198 11.6744572499999997   T   T   T
  6.7100407261943991  1.9630587295860003 14.5516995000000016   T   T   T
  0.3742713864174600  7.2741719033638210 14.6102370000000015   T   T   T
  1.1367169200802798  8.1616470865509605 15.8151170000000008   T   T   T
  5.3046099491107794  4.9691399221424106  9.5599867500000002   T   T   T
  3.3984192294918598  2.5827132851320203  9.0910842499999998   T   T   T
  6.0064336327413601  5.7403992306985199  8.3269789999999997   T   T   T
  7.8772087704260993 11.0118619708122001 12.1390352500000009   T   T   T
 11.9502931264869598  9.6999722530783217  8.3780057499999998   T   T   T
  8.6234142508273202  1.4476093444259401  5.3785787500000000   T   T   T
  7.3934521021985402  0.3978163728676800  5.4337602499999997   T   T   T
  6.9303052190030394  2.2415618885806801 13.0240362500000018   T   T   T
  4.1556626710384794 10.4620085911239595  6.1378624999999998   T   T   T
  4.0942672290651601 11.9867684521534201  5.7075399999999998   T   T   T
  2.0605375481174399 10.5890965161124804 11.1628630000000015   T   T   T
  7.9872338509160397  0.9646195710858301 11.3847680000000011   T   T   T
  6.8294104951682391 11.0009092091718301  3.8884062499999996   T   T   T
 12.1953916874974784 10.7614333365743118 11.3616739999999989   T   T   T
 12.0801440291729385  0.7411479763065300 11.0894034999999995   T   T   T
 11.3573607668686201  2.1648753535998901 11.1852837500000000   T   T   T
 12.3289809777199793  7.9642442076776110  4.3900712500000001   T   T   T
  0.0186983394696000  4.3980940132726500  8.8249399999999998   T   T   T
  0.8676266380013399  6.5670270335224812  7.7352729999999994   T   T   T
 10.8911770039560594  7.0136514437101205 10.9652997499999998   T   T   T
 11.1977374574889588  8.0650644803549696  9.7952487500000007   T   T   T
 11.4048353949746986  0.9133185231361501  8.9752212500000006   T   T   T
 11.9273318370540604 11.5352486949280202  5.8437614999999994   T   T   T
  6.0678630041857797 11.1429850808300124  5.1574780000000002   T   T   T
  0.9576874896602999 10.3147055185186503  7.1876375000000010   T   T   T
  1.1901180665194799  9.0981098981757604  8.1510142499999994   T   T   T
  2.0350444799617797  1.1821368026844601  4.8709492499999998   T   T   T
  2.5449022580742597  0.2957800116064200  3.6468454999999995   T   T   T
  0.0000000000000000  0.0000000000000000  1.7000000000000002   F   F   F
  2.1650852596501799  1.2185943362009102  1.7054012500000000   T   T   T
  0.7595030162861400  1.2122466827274301  1.6229594999999999   T   T   T
  2.8621026096368998 12.2904341148223519  1.6030147500000000   T   T   T
  4.2989892073237197 12.2719053854721913  1.7067275000000000   T   T   T
  6.3884897201865591  1.1414308232702701  1.8399597500000000   T   T   T
  4.9752091999192798  1.1841742091526601  1.8387985000000000   T   T   T
  7.1100670138558195 12.2384535342084906  1.7902402500000001   T   T   T
  8.5100117155519186 12.2774462044908894  1.8009457499999999   T   T   T
 10.6915786319050792  1.2000912931737600  1.7393732499999999   T   T   T
  9.2593123319319002  1.1200552636065002  1.7896187500000000   T   T   T
 11.3806208917186797 12.2791399732670090  1.7128239999999999   T   T   T
  0.0170990450412600  2.4133206979976700  1.6515195000000000   T   T   T
  2.1191211972046200  3.6886157528777401  1.7600687500000001   T   T   T
  0.7276621922127600  3.6875957744033703  1.7090137500000002   T   T   T
  2.7931718802573600  2.4553323597010204  1.8283480000000001   T   T   T
  4.2690042613016397  2.3692551149470802  1.9429280000000000   T   T   T
  6.4830806043624589  3.5768263494865202  2.0660145000000001   T   T   T
  5.0567752643364594  3.6334715524793704  2.1077032499999997   T   T   T
  7.1119595101287594  2.3526031416707704  1.8891657499999999   T   T   T
  8.5371748819001390  2.3068579688190303  1.9528757500000000   T   T   T
 10.6505421529491588  3.6459546115351205  1.8182152499999999   T   T   T
  9.2343269254853393  3.5851475847571805  2.0238867500000000   T   T   T
 11.3892698339914205  2.4096031589459401  1.6836002499999998   T   T   T
 12.7377176648093400  4.9273053585849302  1.7320777500000000   T   T   T
  2.1511082380930797  6.1016506165598106  1.6667272500000001   T   T   T
  0.7210031814111000  6.1264017407977507  1.6598842500000000   T   T   T
  2.8592207812009800  4.8768186667103102  1.7916922500000001   T   T   T
  4.2858567095076596  4.8797758205788204  2.0307762500000002   T   T   T
  8.5342200730924205  4.7621195691752414  2.0698660000000002   T   T   T
 10.6047259717832993  6.1073994156552001  1.7180580000000001   T   T   T
  9.2101254818747993  6.0563264032275015  1.9197742499999999   T   T   T
 11.3316047133029993  4.9180273746722998  1.7315762500000003   T   T   T
 12.7950448991798993  7.3498182155260503  1.5904247499999999   T   T   T
  2.1429567146702402  8.5876156312621799  1.6381307500000002   T   T   T
  0.7178016477324000  8.6079275230754995  1.6189672499999999   T   T   T
  2.8811883852557401  7.3212397509834304  1.7183074999999999   T   T   T
  4.2680752339721995  7.2747565655104500  2.1818395000000002   T   T   T
  6.4338622575133195  8.5652741000715906  2.1921967499999999   T   T   T
  4.9847413327265402  8.5117797083338811  2.1171215000000001   T   T   T
  8.5617896248793990  7.3045200632925011  2.1017925000000002   T   T   T
 10.6582894675408184  8.5708157846727904  1.6629722499999999   T   T   T
  9.2748252702260405  8.5272137372505306  1.9229955000000001   T   T   T
 11.3636767699228205  7.3318624610195409  1.6083555000000000   T   T   T
  0.0052142555115000  9.8097427523272511  1.6655530000000001   T   T   T
  2.1381170917339802 11.0830129246547120  1.6898317500000000   T   T   T
  0.6837035535628200 11.0717217442017919  1.6905257499999999   T   T   T
  2.8364341325174398  9.8354810154582317  1.7133320000000001   T   T   T
  4.2750900560953200  9.7711152377084414  1.9390360000000000   T   T   T
  6.4232249201983800 10.9737973982892605  1.7970230000000000   T   T   T
  4.9955067057814793 10.9577913787967116  1.8035090000000000   T   T   T
  7.1559085460981997  9.7454990547937506  1.8976607500000000   T   T   T
  8.5677411101818191  9.7797680117385895  1.8587570000000002   T   T   T
 10.6623131187060594 11.0457645886205693  1.6924539999999999   T   T   T
  9.2435955607396796 10.9851275854673105  1.7640692499999999   T   T   T
 11.3602657697734788  9.7912995109143619  1.6261250000000000   T   T   T
  4.8499149611841599  6.0909651040487711  2.3941750000000002   T   T   T
  7.2023384025658785  4.7703682650729595  2.2691692500000000   T   T   T
  7.2419956805305192  7.4404542339525905  2.5024294999999999   T   T   T
 12.1350539487722990  1.6844463775967999 10.8276022500000000   T   T   T
  1.9100270544965401  7.1876818095120312  6.5281922500000009   T   T   T
  7.0322189792924998 11.1736485572119513  4.7615397499999998   T   T   T
 11.5661492882653185 11.5060919222319917 11.5406677500000008   T   T   T
  4.4877437204111397 10.8075372915897319  8.9874814999999995   T   T   T
  1.6109784578294399  2.6648928366448801  5.3546567500000002   T   T   T
 11.0758631814049782 11.9216531561082615  6.1493482500000001   T   T   T
  9.3150832918827593 10.0008315714890728  5.9275187499999999   T   T   T
 10.4420141842833587  8.0334223047908715  4.8542275000000004   T   T   T
  1.2954725312499600  5.4366899158574702 12.7462264999999988   T   T   T
  3.9572524706546996  1.0646027193666001 12.2845452499999990   T   T   T
  0.9246428735594400 10.0653093162550800  8.1523742499999994   T   T   T
 11.1164818797412792  9.3833853751490111  8.8115372499999989   T   T   T
  3.8883846068235002  5.0694493161771002 10.3814489999999999   T   T   T
 10.9214123878855798  6.1449750869007609  6.7793400000000004   T   T   T
  8.2767949992491392  0.9903056153887799  8.2802557500000002   T   T   T
  7.0271031832650603 10.8560311324762200  9.3880712500000012   T   T   T
  2.7906657086825999  3.3343960934461503  8.9779547500000003   T   T   T
  7.8186377968771792  8.6531702885034605  8.2127580000000009   T   T   T
  9.8096206974540596  3.8267945062318205 10.9631372500000008   T   T   T
  1.2745110320401198  7.7825921858912404 14.8522684999999992   T   T   T
  5.3351335414910395  8.5469676561660322 12.0859734999999997   T   T   T
  3.9480746127400197  8.6419620755576414  7.3861782500000004   T   T   T
  6.8261468641556400  6.1646210409516309 11.1859432499999993   T   T   T
  9.6727649594326799  6.1666712389197613 12.2284342500000012   T   T   T
  6.1114691604434990  4.9585988565271508  8.9364962500000011   T   T   T
  3.5021395740727201  6.7800507383640909 13.6673980000000004   T   T   T
  4.3407086289167998  1.4050188777688501  9.5683589999999992   T   T   T
  6.7714237487009399  5.6886811251055800  5.3866382499999999   T   T   T
  9.0959324539406392  5.8505093585245804  8.6488072499999991   T   T   T
 12.1198198723198800  3.8951440411199107  5.7577612499999997   T   T   T
  0.5102316424732800  7.9878837977948116  4.4132667500000000   T   T   T
  0.1671541155349800  3.4455092575635602  8.5555164999999995   T   T   T
  0.7456746442231800 10.7997204757310108  5.5436719999999999   T   T   T
 12.1037746894545606  6.5685967227376203 14.0434277500000011   T   T   T
  6.2424374310324593  2.0235782451037201 13.7396447499999983   T   T   T
  3.5058517142825401  7.8472329567951302 10.4049657500000006   T   T   T
  6.6283520035382990  2.4493232720794502  9.4668142499999988   T   T   T
  3.3341223696144002  4.2979720908705001  6.5415219999999996   T   T   T
  5.1596896239340202  4.8691727980632908 12.8109339999999996   T   T   T
  8.6385049272509384 11.3509180240579823 11.5878034999999997   T   T   T
  6.4884179022200996  3.3116595482043003  5.6684279999999996   T   T   T
 10.0359343668347396  2.1718119085798797  5.4256380000000002   T   T   T
  3.6359693154149393 10.7493748895764796 11.8659117499999986   T   T   T
  7.7897933932270202  1.2146000851653900  5.8315362500000001   T   T   T
  1.8310355327392800  2.8641278746859102 12.1580912500000000   T   T   T
 10.7890354680851388  0.2453748161682300  8.5715454999999992   T   T   T
  4.6262987487737997 11.1692156594305523  5.7503845000000000   T   T   T
  1.1052303708994800 10.3528129070124599 10.9439602499999999   T   T   T
  7.8765090551070003  1.9260813243331500 11.6619102500000000   T   T   T
 11.5458796941944399  7.2871106529048317 10.2645390000000010   T   T   T
  0.1681768650261000  6.0471953397471001  8.3177605000000003   T   T   T
  2.3609416591639198  0.2563458097040400  4.6527054999999997   T   T   T
  6.0829920913313993  7.0197955834804509  7.4647972500000010   T   T   T
  1.2428429281800000  8.0234181671100018 12.0452500000000011   F   F   F
  6.4854187930463389  6.0670042709010303  3.4675405000000001   T   T   T
