vasp
1.0 
12.803574 0.000003 0.000000 
0.000000 12.320595 0.000000 
0.000000 0.000000 25.000000 
H C N O K Fe 
106 56 4 56 1 1 
Selective Dynamics
Direct 
0.653541 0.744348 0.328114 T T T 
0.541503 0.787471 0.350758 T T T 
0.205226 0.522409 0.397554 T T T 
0.612618 0.706251 0.554580 T T T 
0.717445 0.438984 0.288130 T T T 
0.605461 0.299903 0.407428 T T T 
0.514078 0.253479 0.372398 T T T 
0.650526 0.479859 0.342240 T T T 
0.062204 0.817341 0.218397 T T T 
0.294136 0.505968 0.447825 T T T 
0.665831 0.813392 0.526332 T T T 
0.665298 0.568327 0.202540 T T T 
0.932475 0.929998 0.221153 T T T 
0.151930 0.291231 0.370336 T T T 
0.228720 0.860091 0.365419 T T T 
0.734927 0.153464 0.490458 T T T 
0.311715 0.098921 0.473030 T T T 
0.364196 0.166005 0.523585 T T T 
0.320422 0.739352 0.227943 T T T 
0.211244 0.691667 0.227422 T T T 
0.501403 0.639612 0.615791 T T T 
0.531869 0.548031 0.580580 T T T 
0.735893 0.993615 0.536493 T T T 
0.649483 0.442581 0.196477 T T T 
0.782218 0.907408 0.580787 T T T 
0.371126 0.192343 0.308558 T T T 
0.403337 0.478299 0.262606 T T T 
0.978419 0.058156 0.414893 T T T 
0.867153 0.065322 0.384915 T T T 
0.591406 0.074040 0.231919 T T T 
0.706298 0.133801 0.228296 T T T 
0.319824 0.275950 0.351452 T T T 
0.565134 0.120534 0.423245 T T T 
0.481775 0.079309 0.465605 T T T 
0.916852 0.504991 0.225383 T T T 
0.979837 0.620384 0.221369 T T T 
0.843138 0.584809 0.490755 T T T 
0.701946 0.082307 0.312583 T T T 
0.673699 0.141056 0.366588 T T T 
0.403905 0.398095 0.315547 T T T 
0.083229 0.275472 0.471901 T T T 
0.491433 0.927208 0.413232 T T T 
0.451229 0.812416 0.435911 T T T 
0.484749 0.754926 0.200835 T T T 
0.497254 0.799944 0.261365 T T T 
0.467050 0.523568 0.414725 T T T 
0.454268 0.451942 0.470598 T T T 
0.344251 0.278289 0.159931 T T T 
0.244132 0.275830 0.201460 T T T 
0.916569 0.904075 0.445963 T T T 
0.901296 0.242775 0.480951 T T T 
0.429334 0.645879 0.472227 T T T 
0.514446 0.726131 0.496343 T T T 
0.249778 0.531895 0.313223 T T T 
0.136165 0.480354 0.317921 T T T 
0.195362 0.024485 0.184087 T T T 
0.239781 0.051466 0.240366 T T T 
0.850648 0.237142 0.422882 T T T 
0.947614 0.892179 0.362610 T T T 
0.045786 0.312809 0.204697 T T T 
0.107648 0.204479 0.217124 T T T 
0.714794 0.453003 0.447470 T T T 
0.554803 0.329394 0.557651 T T T 
0.775708 0.617852 0.340530 T T T 
0.844704 0.724120 0.347834 T T T 
0.322556 0.990525 0.317458 T T T 
0.398862 0.023709 0.269465 T T T 
0.760840 0.791267 0.214494 T T T 
0.798828 0.661515 0.223713 T T T 
0.987879 0.340538 0.332355 T T T 
0.076735 0.329556 0.286361 T T T 
0.595507 0.396850 0.507841 T T T 
0.736515 0.321209 0.454746 T T T 
0.201479 0.163823 0.429883 T T T 
0.047817 0.942322 0.500818 T T T 
0.624525 0.219755 0.618105 T T T 
0.208303 0.846551 0.541483 T T T 
0.314248 0.785732 0.527574 T T T 
0.490243 0.524268 0.330847 T T T 
0.220885 0.021303 0.415513 T T T 
0.550356 0.634351 0.345945 T T T 
0.893039 0.834184 0.494569 T T T 
0.949301 0.847401 0.304117 T T T 
0.778155 0.941866 0.167871 T T T 
0.747581 0.988526 0.224056 T T T 
0.617837 0.160710 0.560092 T T T 
0.330202 0.580417 0.209249 T T T 
0.324012 0.443790 0.194007 T T T 
0.336078 0.904323 0.390984 T T T 
0.638243 0.075227 0.485096 T T T 
0.845818 0.218326 0.338811 T T T 
0.137363 0.024756 0.486595 T T T 
0.100400 0.082532 0.570326 T T T 
0.200147 0.149291 0.573950 T T T 
0.060023 0.764945 0.160220 T T T 
0.206687 0.363774 0.413165 T T T 
0.857686 0.540247 0.547561 T T T 
0.697704 0.654285 0.474828 T T T 
0.743942 0.634930 0.415546 T T T 
0.067292 0.217142 0.523539 T T T 
0.045385 0.981671 0.234518 T T T 
0.808507 0.334783 0.354048 T T T 
0.073756 0.767798 0.357831 T T T 
0.142555 0.669179 0.342779 T T T 
0.437614 0.039575 0.167310 T T T 
0.462320 0.942184 0.206194 T T T 
0.000000 0.000000 0.068000 F F F 
0.166880 0.103204 0.065323 T T T 
0.055220 0.100189 0.066732 T T T 
0.221120 0.001428 0.065046 T T T 
0.334625 0.001062 0.065849 T T T 
0.498748 0.096184 0.070847 T T T 
0.386971 0.102820 0.068204 T T T 
0.557061 0.998822 0.064336 T T T 
0.665367 0.001703 0.067464 T T T 
0.833203 0.103420 0.069712 T T T 
0.721007 0.099127 0.067765 T T T 
0.890586 0.003454 0.069796 T T T 
0.997581 0.198434 0.066879 T T T 
0.163150 0.302610 0.068820 T T T 
0.052348 0.300839 0.064879 T T T 
0.220914 0.201089 0.067595 T T T 
0.333641 0.204461 0.069291 T T T 
0.503870 0.302888 0.078321 T T T 
0.388715 0.303182 0.078378 T T T 
0.553338 0.198995 0.070625 T T T 
0.668945 0.199739 0.072323 T T T 
0.832584 0.302010 0.070488 T T T 
0.720223 0.302319 0.073343 T T T 
0.887088 0.202571 0.066111 T T T 
0.997410 0.400595 0.062726 T T T 
0.157518 0.504224 0.067946 T T T 
0.049655 0.501805 0.067269 T T T 
0.218797 0.405758 0.069435 T T T 
0.328556 0.407727 0.075979 T T T 
0.659485 0.398583 0.081991 T T T 
0.829320 0.500213 0.063965 T T T 
0.716211 0.499706 0.074891 T T T 
0.888660 0.401802 0.064308 T T T 
0.992539 0.603185 0.066283 T T T 
0.164476 0.703515 0.068664 T T T 
0.051232 0.698736 0.065931 T T T 
0.217993 0.603317 0.069194 T T T 
0.324203 0.596487 0.078707 T T T 
0.499049 0.701885 0.079081 T T T 
0.384327 0.697900 0.076355 T T T 
0.666521 0.604038 0.078653 T T T 
0.831519 0.702834 0.065487 T T T 
0.720437 0.703877 0.072571 T T T 
0.881743 0.601582 0.063278 T T T 
0.998483 0.802491 0.063895 T T T 
0.165840 0.901283 0.065031 T T T 
0.056282 0.902609 0.065821 T T T 
0.221188 0.801651 0.067971 T T T 
0.331551 0.803115 0.071259 T T T 
0.499666 0.900230 0.067093 T T T 
0.390665 0.900318 0.065619 T T T 
0.552515 0.799272 0.074022 T T T 
0.663829 0.803541 0.072214 T T T 
0.833719 0.902312 0.068367 T T T 
0.721824 0.902331 0.070978 T T T 
0.888017 0.802494 0.065027 T T T 
0.374788 0.502059 0.083111 T T T 
0.555116 0.392873 0.092565 T T T 
0.559682 0.607909 0.090329 T T T 
0.832362 0.302182 0.221647 T T T 
0.124843 0.158039 0.580976 T T T 
0.283214 0.674891 0.238338 T T T 
0.863539 0.285707 0.356095 T T T 
0.104631 0.986494 0.517151 T T T 
0.728129 0.086239 0.350357 T T T 
0.342473 0.050846 0.291733 T T T 
0.992644 0.928843 0.246722 T T T 
0.731983 0.711743 0.222527 T T T 
0.928207 0.578575 0.241286 T T T 
0.563062 0.604317 0.599677 T T T 
0.542393 0.057463 0.443396 T T T 
0.141226 0.733687 0.365529 T T T 
0.945245 0.821122 0.343259 T T T 
0.384054 0.257893 0.331668 T T T 
0.061816 0.348990 0.326039 T T T 
0.662380 0.083775 0.246290 T T T 
0.916484 0.015950 0.404964 T T T 
0.200579 0.084348 0.441128 T T T 
0.774305 0.691302 0.356732 T T T 
0.533940 0.396071 0.534568 T T T 
0.241511 0.776762 0.538548 T T T 
0.210291 0.494139 0.437073 T T T 
0.576420 0.743469 0.323379 T T T 
0.680929 0.378377 0.453512 T T T 
0.631130 0.746454 0.518284 T T T 
0.537203 0.558091 0.358800 T T T 
0.436642 0.720805 0.486287 T T T 
0.588044 0.237765 0.385191 T T T 
0.610485 0.513878 0.195608 T T T 
0.720191 0.460883 0.325389 T T T 
0.176757 0.542285 0.328208 T T T 
0.085576 0.747191 0.196625 T T T 
0.205908 0.286300 0.400322 T T T 
0.176656 0.048594 0.218316 T T T 
0.753672 0.916342 0.546100 T T T 
0.582691 0.209647 0.587455 T T T 
0.385455 0.473827 0.302103 T T T 
0.836423 0.219823 0.460425 T T T 
0.313589 0.306494 0.193768 T T T 
0.420403 0.510580 0.449551 T T T 
0.938160 0.836287 0.464284 T T T 
0.455376 0.804003 0.226218 T T T 
0.109527 0.280508 0.218663 T T T 
0.454760 0.861851 0.403174 T T T 
0.800088 0.933292 0.204885 T T T 
0.375993 0.119630 0.493783 T T T 
0.028088 0.246003 0.492961 T T T 
0.370356 0.512363 0.195416 T T T 
0.263961 0.925414 0.378044 T T T 
0.692616 0.094994 0.510564 T T T 
0.739811 0.602811 0.452919 T T T 
0.897342 0.564042 0.518162 T T T 
0.466109 0.021796 0.203755 T T T 
0.912979 0.364162 0.222643 T T T 
0.839414 0.200967 0.211463 T T T 
0.740508 0.339365 0.228042 T T T 
0.097070 0.651220 0.481810 F F F 
0.487819 0.505940 0.139954 T T T 

