vasp
 1.0000000000000000
    12.8035739999999993    0.0000030000000000    0.0000000000000000
     0.0000000000000000   12.3205950000000009    0.0000000000000000
     0.0000000000000000    0.0000000000000000   25.0000000000000000
 H   C   N   O   Fe 
 110  56   3  55   1
Selective dynamics
Cartesian
  3.0369019952787601  8.6632703311136705  8.5571252500000003   T   T   T
  1.3200996936959999  9.2091972181837516 12.8731842499999996   T   T   T
  2.9575819338126599  8.4672857454215702 10.0370552499999999   T   T   T
  4.4787106709183995  8.2956395148870001 12.4465267500000003   T   T   T
 11.0323817319580204  4.3825217601267905 11.3274342499999996   T   T   T
  7.3518653256321000  6.2891031581566503  6.9554740000000006   T   T   T
  4.6411412919332999 10.6942416945324013  6.8799015000000008   T   T   T
  5.4279284683419595 11.0432109044879709  5.3708787500000001   T   T   T
  7.8587842994043600  7.2981686318491210  8.0251637500000008   T   T   T
  1.1032071501359999  7.6075113161532002  6.6596782500000007   T   T   T
  4.7590351929321599  7.7632644529126207 13.8600702499999997   T   T   T
  9.6229938822939598  4.9914240853040699 11.6810292499999999   T   T   T
  6.1102852139557200  7.5212924727257402  5.6779057499999999   T   T   T
 11.0141147448964798 12.0582769588307102  6.9425087500000000   T   T   T
  0.7666817241564600  2.2387564001686200  7.1317610000000000   T   T   T
  2.7147899366582395  1.5760525037667301  9.0751814999999993   T   T   T
  9.2929836829800596  0.8507351963887200 11.3452622500000011   T   T   T
  3.4120435125852597  3.2852083580045703 12.9527584999999998   T   T   T
  4.6005113264518798  2.5488274951295100 12.1430899999999991   T   T   T
  1.3417091817859801 10.3056994999655114  8.3102537500000011   T   T   T
  0.7501546147657799 10.7491071029028600  7.0182977499999994   T   T   T
  0.9991699170986400  5.8619388790344304 15.4046165000000013   T   T   T
  1.0200727759395598  6.8989188877342205 14.2184849999999994   T   T   T
  9.0299634472987798  9.8246084327204102 12.1935979999999997   T   T   T
  7.7460973558798205  7.2446617398318907  5.2839345000000000   T   T   T
 10.0807517411928593 10.9875578957788207 12.1311082500000005   T   T   T
  4.1096549484055798  4.3359402805788605 11.4310604999999992   T   T   T
  2.5619879873985596  7.7608054865971212 11.8558385000000008   T   T   T
  7.5733951956591596 11.7669473058575704  9.1801422499999994   T   T   T
  7.3629018783843598 10.2135401496577209  9.0486314999999991   T   T   T
  8.4862199863093792  0.7559716437375601  7.4044770000000000   T   T   T
  9.3359453073226195  1.3080482179281900  8.6914429999999996   T   T   T
  3.2572395964949394  4.6929373293615306 10.0149637499999997   T   T   T
  5.6755973468329790  1.2031629974802600 10.7911374999999996   T   T   T
  6.4818506930440201  1.0266165756060901 12.0703005000000001   T   T   T
 10.8006346098789585  5.4978635275651202  7.2731269999999997   T   T   T
 11.3778194697274788  5.2096174288944601  5.7841947500000002   T   T   T
 12.1443997895778590  7.6277258393078711  9.5891345000000001   T   T   T
  5.2810143706219197 11.2923447591179418  9.1382200000000005   T   T   T
  3.9540358287586796 10.5207972485709611  9.2548727500000005   T   T   T
  3.3332503181892599  6.7103251251260714 11.2214357499999995   T   T   T
 10.6673453073952800 11.0865797640918604  8.8727407500000002   T   T   T
  4.8531106052188200 11.7509027896598397 12.3369227499999994   T   T   T
  4.7584832308570197 10.3814024716425912 13.0369294999999994   T   T   T
  5.4757557068759999  2.7872033689129503  7.6280072500000005   T   T   T
  4.4421000033870595  2.2974947123692200  6.6091157500000000   T   T   T
  5.6515664468281201  5.2340874993794406 14.2457162500000010   T   T   T
  5.3995472979991197  3.7767995785481405 13.6129152499999986   T   T   T
  3.4133868635693401  7.5302048056515307  6.7226305000000002   T   T   T
  2.7454413087070200  6.2897967139734900  7.4748670000000006   T   T   T
  7.1219076310552794  9.9679078404420611 11.2364337499999998   T   T   T
  7.0871226251406005  1.5783302509962001  9.0262072500000006   T   T   T
  2.9211500041743599  6.6111040736773203 14.8618222500000012   T   T   T
  4.0176553795715400  6.8016402377728804 15.9302542500000008   T   T   T
 10.7947389481591802  2.3525638394415602  9.6849867500000002   T   T   T
  9.7529831916148790  3.3015692529944101  8.8643872500000001   T   T   T
  0.2054094021466200  9.1804971165962410  5.4791390000000000   T   T   T
  0.8201425352504998 10.2622342898926497  4.4827812500000004   T   T   T
  6.3706727787511204  2.9655010691430901  9.5502600000000015   T   T   T
 10.0776486669982202  9.6508975291493400 10.4597949999999997   T   T   T
  9.3379646870138995 11.1061937166393001  5.9280117499999996   T   T   T
  7.9095019447688992 10.9439789496954010  5.2341282500000004   T   T   T
 10.0794100546733993  0.8925594884727002  5.2544029999999999   T   T   T
  9.6037095232423795  1.6004063899538101  3.8952420000000001   T   T   T
  7.4338037179812000  4.5044596937497507 11.2281240000000011   T   T   T
 11.2693721736615604  1.9897097376898203 11.6118220000000001   T   T   T
  8.1771831935291388  9.5256209042742306  7.3926494999999992   T   T   T
  8.8636537274690994  8.9704573953339004  8.8193465000000000   T   T   T
 10.9637918337183589  3.3248585413972203  4.7247262499999998   T   T   T
 12.2767078261501794  3.4259894961407098  5.5994444999999997   T   T   T
  8.9976140652661201  8.8926617401254902  5.3407617499999995   T   T   T
  9.9043978736316589  7.5624574552652701  5.5667969999999993   T   T   T
  9.9827072209661996  5.0881420723978508  9.6462979999999998   T   T   T
  8.9332592051984392  5.2798702440660303  8.4164174999999997   T   T   T
  0.0032903904822600  2.2875442990273203 11.2861014999999991   T   T   T
  7.1336284068021003  4.4065806277335007 12.7892635000000006   T   T   T
  1.6191770984045997  4.2784240794273005  7.9151192499999992   T   T   T
  1.2280825839655798  0.5312576910302100 11.9848332499999994   T   T   T
  7.9446320070028795  2.7610225598133602 12.0394507500000003   T   T   T
  1.2692214915135001 11.3639670108240018 13.7607485000000000   T   T   T
  2.3537134014622199 10.9603816577217916 12.7219265000000004   T   T   T
  5.5752507440011199  5.1406718677662910 10.0528654999999993   T   T   T
  3.1223882579832596  4.0200700557046201  7.6371677499999997   T   T   T
  6.7680201746245192  5.3702181383361900  8.9639354999999998   T   T   T
  6.9992113655204999  8.6859739271034009 12.2021679999999986   T   T   T
 10.9765408644931188  9.1837413121259406  9.1948822499999991   T   T   T
  7.8900110640687000  2.1960956681323500  5.1102954999999994   T   T   T
  6.3543570563671796  2.6008199545307105  5.8008772500000001   T   T   T
  8.3027578305348602  1.5680249741434202 13.0335457500000000   T   T   T
  4.8570808654804800  9.2733414054153602  5.9740799999999998   T   T   T
  4.9634859914933998  8.1252276883498507  7.2832535000000007   T   T   T
  3.6664433579638200  0.8464793301710400  9.9676209999999994   T   T   T
 10.3873614884856593  0.0958672586699700 10.5940312499999987   T   T   T
  6.7122326980631994  0.5466910140804001  5.0578545000000004   T   T   T
  2.0262229455115199  1.4752251515690402 11.1003472500000004   T   T   T
  1.7823311213504998  4.3310337975415498 13.4845282500000003   T   T   T
  1.5975805419243598  2.9191405087196700 12.8526457499999989   T   T   T
  0.2844159040854600  7.9785508941715202 12.3473269999999999   T   T   T
 12.2820415390070998  7.1014031129893498  6.4913485000000009   T   T   T
 12.1808854942269598  2.7618581495134200  7.6446160000000001   T   T   T
 12.5534093208291591  8.2149455754125693  8.1733307499999999   T   T   T
 11.2137871216051792  6.7277039387993103 11.6084060000000004   T   T   T
 11.0050463575395003  8.2715303788906507 11.7152697499999991   T   T   T
 12.1153265860603199 11.5405218304310413  8.7496039999999997   T   T   T
 11.5082457650290202 11.2560327429267915  5.5608217500000006   T   T   T
  6.7201960089482400 11.8020622801662309  3.8329112500000000   T   T   T
  2.6825820341182798  1.1882261620755601  6.8588844999999994   T   T   T
  1.8329706649136399  0.1203447980878800  7.6862292500000002   T   T   T
  2.9623962056724000  0.7565058025114501  3.9840682500000000   T   T   T
  3.3466329978412799 11.9289892450457096  5.1043199999999995   T   T   T
  0.0000000000000000  0.0000000000000000  1.7000000000000002   F   F   F
  2.1505410397648799  1.2869659962741600  1.7260134999999999   T   T   T
  0.7020963997567800  1.2424528256261100  1.6424132500000002   T   T   T
  2.8449848713775996  0.0426873392799000  1.7193292499999999   T   T   T
  4.2662532853919997  0.0520482443479500  1.8030917500000001   T   T   T
  6.3573760110806390  1.3082625144036302  1.6188105000000002   T   T   T
  4.9407472281766198  1.2653263873703400  1.7761792500000002   T   T   T
  7.0958669540396402  0.0724144812706800  1.6564222499999999   T   T   T
  8.5277533719722403  0.0683289378555300  1.6786012499999998   T   T   T
 10.6664327966763004  1.3116010500364501  1.7519735000000001   T   T   T
  9.1772420627705991  1.3064101576372500  1.6550434999999999   T   T   T
 11.3500313609323200  0.1033605004938900  1.7198067500000001   T   T   T
 12.7756716833247594  2.4915875566600203  1.7209857499999999   T   T   T
  2.1118873059303596  3.7280212029950701  1.6357722500000000   T   T   T
  0.7154634590485200  3.7533840526665903  1.7165842499999999   T   T   T
  2.8431184943956200  2.5189751441121904  1.6917600000000002   T   T   T
  4.2735280200673191  2.5197612868199402  1.8751587500000000   T   T   T
  6.4341240906016193  3.7804836788643903  2.1163334999999996   T   T   T
  5.0081810917198197  3.7757850090549905  2.1264322499999997   T   T   T
  7.0928536328987395  2.5546599095464799  1.8556215000000000   T   T   T
  8.5071539578351185  2.5496522886809401  1.8754282500000001   T   T   T
 10.6668394381865390  3.7456665459541800  1.8742667500000001   T   T   T
  9.2601682508537984  3.7640018490426006  1.9711099999999999   T   T   T
 11.3312302087634986  2.5279080858616503  1.8640247499999998   T   T   T
  0.0023920917304200  4.9853759919324903  1.7832687500000000   T   T   T
  2.1542872374815398  6.1751166004063807  1.9351415000000001   T   T   T
  0.6946132228967400  6.1772917058499299  1.7769702500000002   T   T   T
  2.8202762782009199  4.9494672924146403  1.7782767500000001   T   T   T
  4.1984479901670593  4.9688582605682701  2.0782275000000001   T   T   T
  8.4694083815044188  4.9078681270428905  2.1977180000000001   T   T   T
 10.5728239466261993  6.1854267219628500  1.9149012500000000   T   T   T
  9.1469139809653193  6.1985644543367400  2.0679069999999999   T   T   T
 11.3510173641660597  4.9893620225935207  1.9085439999999998   T   T   T
 12.8012146854190192  7.4049899645876405  1.7764937500000002   T   T   T
  2.1206583942990602  8.6721625058702703  1.8935915000000001   T   T   T
  0.7242710376031199  8.6318504239028400  1.8459362500000001   T   T   T
  2.8051674207022201  7.4133727729631405  1.9349635000000001   T   T   T
  4.1820304793698195  7.4336707830140405  2.1218979999999998   T   T   T
  6.3445669315438193  8.6941635196223412  2.1284282500000002   T   T   T
  4.9308983349485995  8.6587514574432003  2.1092949999999999   T   T   T
  8.4532420768290599  7.5320766224767199  1.9519237500000002   T   T   T
 10.6908809651578203  8.6422678509522903  1.8269567499999999   T   T   T
  9.2571807929323793  8.7392549924507108  1.8832595000000001   T   T   T
 11.3418299035708792  7.3733940727920606  1.7926029999999999   T   T   T
  0.0238640694356400  9.8507895581752809  1.7790582499999998   T   T   T
  2.1460361022529799 11.1657205879214114  1.7838150000000002   T   T   T
  0.6818476755115199 11.1063410140395913  1.7456017500000001   T   T   T
  2.8521825285374400  9.8607331874542812  1.8983699999999999   T   T   T
  4.3003477945608592  9.8724202271605197  1.8722340000000000   T   T   T
  6.3441310978848602 11.1585592400839211  1.6878332500000000   T   T   T
  4.9630746126607796 11.1214739255391617  1.7421477500000000   T   T   T
  7.0414257732844190  9.9015696723080406  1.8787392500000000   T   T   T
  8.5248707753218795  9.9146617609344609  1.8012859999999999   T   T   T
 10.6432213254074384 11.1348615829194308  1.7515055000000002   T   T   T
  9.2193010351461595 11.1556595224948207  1.6420292500000000   T   T   T
 11.3707530492011397  9.9214441760637300  1.7815032500000001   T   T   T
  4.7366302187895597  6.1999980310468201  2.3685987499999999   T   T   T
  7.1588806397308193  4.8418827789500405  2.4922357499999999   T   T   T
  7.0853885090780393  7.5066107409640814  2.0956665000000001   T   T   T
  2.0163090101275798  3.4021445229989102 13.5966452499999999   T   T   T
  1.0008461610067199 11.1042145540869921  7.8993767500000009   T   T   T
  6.5006623441435192 11.8649913925731916  4.7548300000000001   T   T   T
  1.2928347389344799  1.5088774529121600 11.7482629999999997   T   T   T
  4.4150171154478191 11.2531674050195409  8.7018827500000011   T   T   T
 11.6685088690014585  3.9679556948806201  4.9949544999999995   T   T   T
 10.8357471312165590 11.9096986729301708  5.9725952499999995   T   T   T
  1.0329599572777799  8.2326193569134105 13.0351285000000008   T   T   T
  9.0701013714313810  7.9250605022243104  5.2392677499999998   T   T   T
 11.1249286535805592  5.9826876412168204  6.4768987500000001   T   T   T
  1.4059119353945400  6.0283642163325304 14.5373045000000012   T   T   T
  5.5267611765840599  1.0145680419689700 11.7361104999999988   T   T   T
  2.0177542775607002  1.1069003460300000  7.6378150000000007   T   T   T
 10.0269155293091394  9.4484622562312808  9.4901152500000006   T   T   T
  3.8352935629465801  5.0851213469892604 10.7073009999999993   T   T   T
  9.7140484193310606  4.8559952639573707  8.7427262500000005   T   T   T
  8.4276034320370190  0.6962148961638900  8.3798569999999994   T   T   T
  7.0678346810882999 11.0358735119695517  9.5626685000000009   T   T   T
  2.5013400180753598  4.5668306877721196  8.1806912499999989   T   T   T
  8.0249087515182591  8.9248823322553203  8.1788367500000003   T   T   T
 11.8646880466157398  2.6272718382357305 11.1587957499999995   T   T   T
  1.3537769343882000 11.1180441350517007 12.8324539999999985   T   T   T
  5.1648977337300002  8.3808373293278997 13.1709569999999996   T   T   T
  2.9189321690860797  9.1872036058472109  9.3652444999999993   T   T   T
  7.8330251729809799  4.2449963113898104 12.0748154999999997   T   T   T
 10.4485059804085783  5.1913483560873610 11.1933637499999996   T   T   T
  6.4852853798052603  4.8534395856421204  9.7207639999999991   T   T   T
  3.9187687682828996  6.7864271135146508 14.9600617500000013   T   T   T
  4.7339978039751598 10.4719293929333706  5.9175212500000001   T   T   T
  6.7897396454151604  6.8606821641863700  5.2754752500000004   T   T   T
  7.7214294780684591  6.3150697611532207  7.8534030000000001   T   T   T
 10.2472483932029395  2.4086343693864301  8.8719982500000008   T   T   T
  0.1178634284927400  7.8434105607999314  6.5966095000000005   T   T   T
  0.1652659724772000  3.0606000702547500  7.1926285000000005   T   T   T
  0.2485685856360000 10.1771423362177504  5.1859857500000004   T   T   T
 10.0352844574185003 10.0377027224539503 12.1139185000000005   T   T   T
  8.0838076245973198  1.7499606850872902 12.0816740000000014   T   T   T
  3.4002345202135800  7.6626176868014104 11.3628147500000001   T   T   T
  6.1982849462721594  2.0361246662647203  9.2714752499999999   T   T   T
  2.5428516376624200  7.1874832265915414  7.0846274999999999   T   T   T
  8.6134980108000594 10.4697465996796204  5.7101085000000005   T   T   T
  6.1139189962926599  4.3946975445461698 13.9524325000000005   T   T   T
  7.5464320211368197  9.4039436691167406 11.9099322499999989   T   T   T
  4.9354553830066799  3.1188872123699101  6.8405079999999989   T   T   T
  9.7090392770750391  1.8200651282386802  4.8919424999999999   T   T   T
  4.1930718974802001 11.1392740479523500 12.7293915000000002   T   T   T
  7.0001858455376391  1.9157214699024303  5.5256842500000003   T   T   T
  4.2882604524904195  3.3991528756371903 12.5147432499999987   T   T   T
 11.1838775886339601 11.9474438829305711  8.7576295000000002   T   T   T
  4.8749518379982000  8.1249951779778016  6.2850295000000003   T   T   T
  3.1333123953557998  1.6290105849369001  9.9717359999999999   T   T   T
 10.1710426730765988  0.4339681135327500 11.4803312500000008   T   T   T
 11.6801853443822399  7.5542013478159804 11.6492992500000003   T   T   T
 12.2200098874417193  8.4824383049567409  9.0707682500000004   T   T   T
  2.9704104747819597  0.5256267249176700  4.9720645000000001   T   T   T
  6.3878738682771594  6.2861230731775199  3.3852559999999996   T   T   T
