H  C  N  O  Br K  Fe
 1.0000000000000000
    12.8035739999999993    0.0000030000000000    0.0000000000000000
     0.0000000000000000   12.3205950000000009    0.0000000000000000
     0.0000000000000000    0.0000000000000000   25.0000000000000000
 H   C   N   O   Br  K   Fe 
 106  56   3  53   1   1   1
Selective dynamics
Cartesian
  4.5631679103805194 11.6557017305703923  9.2141647500000001   T   T   T
  4.3910568911714396 11.4098645459998824 10.8337327499999994   T   T   T
  4.2819068069286601  7.7066018015059194 10.7620632499999989   T   T   T
  9.3985010091718202  5.1015530263761910 12.0811869999999999   T   T   T
  8.9712967030163409  2.5521767641435802  8.9179427499999999   T   T   T
  4.2341735466277806  0.2551930409282100 14.7089069999999982   T   T   T
  4.7040442267093798  0.0179727845112600 13.2126272500000006   T   T   T
  7.5152549343395991  3.2874456306247501  8.9173279999999995   T   T   T
 12.2628155642529588  8.5904491519670714  4.0683644999999995   T   T   T
  4.3568461255506605  7.1498969660494200 12.2624814999999998   T   T   T
  9.7544954217400210  6.5711959410299405 12.7265167500000000   T   T   T
  5.4233381309914801  3.7192090572962102  5.1690469999999999   T   T   T
 10.5232642564942189  9.1674684104547897  4.7518855000000002   T   T   T
 11.5203293940629994  2.6422458390943500 10.2125745000000006   T   T   T
  0.6907969896303000 10.8031540894931997 10.6980455000000010   T   T   T
  5.3587621532008196  2.6851232693348401 11.9990772499999991   T   T   T
 12.2406760081993795  2.5349203191858600 13.1358974999999987   T   T   T
  0.7452635214620400  1.8878265468520801 13.6109867500000004   T   T   T
  0.6247215852885000  4.9286277235921503  7.7768019999999991   T   T   T
  1.5613480919689799  5.2242686284644604  6.5868187499999991   T   T   T
 11.9912628988223400  5.4425591197047298 13.0768450000000005   T   T   T
  0.2748691752038400  4.6775251678959302 13.6528647499999991   T   T   T
 12.1523397979582199  7.2674094243635414 16.0249332500000001   T   T   T
  4.4961008692324196  4.9997926338252912  5.0664007499999997   T   T   T
 12.4933261171550996  6.7001564970410996 14.6280465000000000   T   T   T
  1.3566481358576998  3.5233241965863002 12.1277507500000006   T   T   T
  2.6530466215793402  6.3229803668677809  9.3605917499999993   T   T   T
  6.9478015589455202  9.9843231443955904  8.8579237500000012   T   T   T
  7.8160387993909204  8.6485540073598912  8.8041952500000011   T   T   T
  6.5654347287593398 11.9563519462356318  7.2503645000000008   T   T   T
  7.2594469518925200 12.0683141606463913  8.6291767500000010   T   T   T
  2.6449382462008799  2.9492793936146100 11.2348412499999988   T   T   T
  2.4970337920319401  0.2000332068787800 13.4802020000000002   T   T   T
  1.2412534925036398 11.7158418422053821 14.0717660000000002   T   T   T
 11.0875862617951206  5.7504858139163408  6.4213255000000000   T   T   T
 12.3109602033864594  4.8480818614463699  6.0248472499999997   T   T   T
 11.9671275216536390  6.1230281632245305  8.7835247499999998   T   T   T
  6.2190134204351999 10.4293038087474006 11.8136137500000000   T   T   T
  4.8992829818133599  9.4203660323815210 11.7861440000000002   T   T   T
  2.2718894730646797  5.2177093101731105 10.5968960000000010   T   T   T
  9.5810803585190403  0.4467685806801301  7.7692827500000003   T   T   T
  2.3273170411608599  9.4321604281625699 14.5644062500000011   T   T   T
  0.8529304396926600  8.9453249543113209 14.9607089999999996   T   T   T
  5.6828083197097801  1.3320791753345100  5.6698620000000002   T   T   T
  4.1435335893167995  1.6359813214686001  5.8669865000000003   T   T   T
  3.6445552641035999  6.5362191739442999 15.6730857499999985   T   T   T
  3.9916611795295194  6.2936421404682896 14.1564925000000006   T   T   T
  1.8995177529215999  1.5869238825626999  8.0978549999999991   T   T   T
  1.9492505473740600  2.8460858694787206  6.9764622500000000   T   T   T
  8.0772044373782990  9.6468949615522526 10.7921477499999998   T   T   T
  4.2858463386127195  1.2710354744378400 10.5556579999999993   T   T   T
  4.1269643561676599  8.6283562380028211 14.7425447500000004   T   T   T
  4.5091816406095200  9.9873235003277401 13.8833147500000003   T   T   T
 10.5534936227439591  2.4908755216211707  6.8043030000000009   T   T   T
 10.7313630493595404  3.5525795514981304  5.8079437499999997   T   T   T
  0.0046251630717600  9.2219072053753202  6.3772912499999999   T   T   T
 12.6359426952620382 10.6382781274450817  6.9713927499999997   T   T   T
  4.4674107486489598  2.5054051285426202  9.7790652500000004   T   T   T
 10.3735831783970394  7.7955329139361798  8.2268577499999989   T   T   T
  9.8747159882061588 11.4541444476263710  5.7301900000000003   T   T   T
  9.9299942666294996  0.5714868422643000  5.3464659999999995   T   T   T
  5.6698586569304394  8.3207172562533298  9.4517397499999998   T   T   T
  7.6543993112134805  3.5994219791379605 12.1076030000000010   T   T   T
  8.4621349271865007  6.8485271802235514  7.2825822499999999   T   T   T
  8.8036639898852389  8.3141914017445799  6.6173997499999997   T   T   T
  0.8723484680568000  1.2291769315815000  6.2647869999999992   T   T   T
 12.4368030752674805  1.6064886226727102  5.3637224999999997   T   T   T
  5.9606881273039800  8.3973649779519590  5.0170412500000001   T   T   T
  5.2250438029524000  7.1480747070640511  5.5166112500000004   T   T   T
  8.5883914825434591  4.8318778051105209  6.0759127500000005   T   T   T
  8.5977199104883795  4.6661629708094097  7.6961592499999991   T   T   T
  8.4628188941095797  3.4735092606309599 10.7233850000000004   T   T   T
  4.8030419730203393  7.4735223858742801  8.3971939999999989   T   T   T
  0.3691280627059200  1.8978005964021902  9.3004870000000004   T   T   T
  9.2844438271577996 11.2886342411220006 11.3999020000000009   T   T   T
  4.6581916833933601  4.9852692776246696 12.6333712499999997   T   T   T
 10.2308069397223189  8.5817406025079404 12.1207684999999987   T   T   T
 10.2048740687997590  8.4312124949596203 13.7430690000000002   T   T   T
  5.3892697411135799  3.9833228105918104  8.0365432499999994   T   T   T
  0.7040384458611000  0.4368447255507000  9.4778777499999993   T   T   T
  5.2010770488532794  2.5688928336588606  7.4199849999999996   T   T   T
  8.2307338857126595  9.3903670265890220 12.3529637499999989   T   T   T
 11.6826917720284786  8.6927886831405594  8.0517247500000000   T   T   T
  7.6513160825585391 12.1704062756076290  5.4910342500000002   T   T   T
  6.2424973517587796 11.4652136511702594  5.1756312499999995   T   T   T
  3.1404205555333800  4.6564828790918105 12.5721502500000000   T   T   T
  3.2029489857699596  9.0839548685879699  6.4327129999999997   T   T   T
  2.4713467497301798 10.2952246715754594  5.9146500000000000   T   T   T
  0.6091702362723599 11.9939288581996202 11.7484627499999998   T   T   T
  5.6283936423527399  2.6090533916571306 13.5249487499999983   T   T   T
  5.0637395123422797 10.0098980404547113  3.9906024999999996   T   T   T
 10.8393723351589184 11.3694246894620417 11.1242182500000002   T   T   T
 10.6021874071663191  1.2207275296178401 11.8919405000000005   T   T   T
  9.8266783869512988  2.5185341014487999 12.0385829999999991   T   T   T
 11.8844023496822402  7.3291893835333806  4.8410977500000003   T   T   T
 12.0528464252977194  3.6510312716603406  9.1158544999999993   T   T   T
  0.4437786607342200  5.6751035788472404  9.6035157499999997   T   T   T
 11.1016821005189392  7.0344124348441808 11.1611425000000004   T   T   T
 11.5039406913072604  8.0379870876460213 10.1075032499999988   T   T   T
  9.7491789937079982  0.4099240039257000  9.3616174999999995   T   T   T
  9.0990754752861598  9.5841618113951697  4.2535154999999998   T   T   T
  4.6614080692178996 10.0434628199371510  5.4990844999999995   T   T   T
  1.5098163953695198  9.6821115971459406  8.7047642500000002   T   T   T
  2.6214125752260600 10.2756777131519712  9.5070915000000014   T   T   T
  0.7059228758824200 11.9523497064815416  5.1213702500000000   T   T   T
  1.6954235338962600 11.3815609203472210  4.1160600000000001   T   T   T
  0.0000000000000000  0.0000000000000000  1.7000000000000002   F   F   F
  2.1196474240960197  1.3229638106826900  1.6898790000000001   T   T   T
  0.6968132610171600  1.2657324654347701  1.7852897500000000   T   T   T
  2.8210174770997800  0.0619169487222600  1.6546062500000001   T   T   T
  4.2555442480626597  0.0518501266711200  1.7156985000000000   T   T   T
  6.3740699510405392  1.2411793426591802  1.8685797500000001   T   T   T
  4.9492120550552396  1.2793535099671802  1.9085780000000001   T   T   T
  7.0891078192892998  0.0323459334517500  1.8081677500000000   T   T   T
  8.5055325132237591 12.3082694983945196  1.8159877500000001   T   T   T
 10.6622055686844597  1.2138425487827702  1.8281160000000001   T   T   T
  9.2174396515580383  1.1848788323283301  1.8752387499999998   T   T   T
 11.3697128868493795 12.3001922945936109  1.8109962500000001   T   T   T
 12.7378373782262404  2.4992868108165305  1.9191369999999999   T   T   T
  2.0948116914295198  3.7578311250084906  2.0093010000000002   T   T   T
  0.6575074411588200  3.7398706872849901  1.9662949999999999   T   T   T
  2.7658678745951399  2.5075793148723302  1.8521150000000000   T   T   T
  4.2228235623839998  2.4997178845815000  1.9578752500000001   T   T   T
  6.4404335638330794  3.6771477699290100  2.2921332500000000   T   T   T
  4.9609804600973400  3.7354839621325802  2.2250360000000002   T   T   T
  7.0698246125593798  2.4750125553314106  2.0011062499999999   T   T   T
  8.4676417443638989  2.4111960201378002  2.0049160000000001   T   T   T
 10.6072119137111400  3.7084787872705807  1.9448352499999999   T   T   T
  9.2259856530958189  3.6239161830594901  2.0935700000000002   T   T   T
 11.3122436608431585  2.4427053763082700  1.8530092500000002   T   T   T
 12.7437522453070198  4.9407536590592400  1.9931282500000000   T   T   T
  2.0923184514644997  6.1903189680570012  2.1287947500000000   T   T   T
  0.6494699975803200  6.1761867843128400  2.0294010000000000   T   T   T
  2.8171131552442197  4.9467099425124896  2.0675322499999997   T   T   T
  4.1909908045622402  4.9958144886214804  2.2789907500000002   T   T   T
  8.5024492845688204  4.8281511746037902  2.3463270000000001   T   T   T
 10.5786010472507392  6.1411853147607305  1.9799680000000000   T   T   T
  9.1536989789351395  6.0751932867475809  2.1465897500000000   T   T   T
 11.3315761613329791  4.9564367063721599  1.9902827500000002   T   T   T
 12.7605007284921594  7.3824219515686202  1.9541454999999999   T   T   T
  2.0558835770041801  8.6922660055544103  1.9948762500000001   T   T   T
  0.6635561055879000  8.6415406808502002  1.9466194999999999   T   T   T
  2.7987710112033000  7.4767714731856509  2.0957397499999999   T   T   T
  4.1871791805824401  7.4294094600277809  2.2744602499999997   T   T   T
  6.4351903722443389  8.6164301964703789  1.9578852500000001   T   T   T
  5.0098839670618194  8.6218674339047414  2.0914032499999999   T   T   T
  8.5256272104738002  7.4601509771224501  2.1303835000000002   T   T   T
 10.6759631369831993  8.5933856403825022  1.9244447500000001   T   T   T
  9.2640566962775992  8.6436258622324509  2.0151647500000003   T   T   T
 11.3426168112289201  7.3847035167447910  1.9041939999999999   T   T   T
 12.7704543549555005  9.8983974758141997  1.8514427499999999   T   T   T
  2.1981146394979798 11.1084201001038618  1.7047960000000000   T   T   T
  0.7295201188359000 11.0972880984155999  1.7004337500000002   T   T   T
  2.8542508178813999  9.8651475339214514  1.8895255000000000   T   T   T
  4.3061225905420795  9.8565381191169621  1.9343079999999999   T   T   T
  6.3865490824753799 11.1091300085304603  1.8896620000000000   T   T   T
  4.9769492056258793 11.1082805428403120  1.8477699999999999   T   T   T
  7.0828023151657789  9.8471533100664601  1.8614205000000001   T   T   T
  8.5063134032020198  9.8752306779363916  1.8545712499999998   T   T   T
 10.6347459995981399 11.1186025845358802  1.9259255000000000   T   T   T
  9.2169802593229182 11.0834872013243402  1.8278559999999999   T   T   T
 11.3642544671817003  9.8784052560573006  1.9713160000000001   T   T   T
  4.7457865666999197  6.2009173959911399  2.4951870000000000   T   T   T
  7.1408807352229200  4.7795124730758900  2.5561080000000000   T   T   T
  7.1956955242674594  7.4932843184342719  2.2607905000000001   T   T   T
 10.7113518314119798  2.2015974748670102 11.9367207500000010   T   T   T
  0.8132284772547600  4.6475285878040697  6.8894567500000008   T   T   T
  5.4484904960430001 10.0463300068145998  4.8597640000000002   T   T   T
 10.0485570263341195 11.8500745706588404 11.0036667500000007   T   T   T
  5.2217753065816801 10.3832689039269610 11.9091264999999993   T   T   T
  0.1391313172284000  0.8705504821990501  5.6841675000000000   T   T   T
  9.6794000275509600  9.5877779187973200  5.0703374999999999   T   T   T
  6.1127277517676992  7.4099050540518006  5.1329202499999997   T   T   T
 11.4023137310753988  5.1514315766569503  5.7146135000000005   T   T   T
  0.0531114015595800  5.5958862504624607 13.4221147500000004   T   T   T
  1.4848540353561601  0.1661307580717200 13.4923882500000012   T   T   T
  1.7838217134355798  9.7188189028553111  9.5967935000000004   T   T   T
 11.3386644759708588  7.8570113074366210  8.5227784999999994   T   T   T
  2.2006935353730599  3.7821497866405207 11.5908145000000005   T   T   T
  8.2810360551008984  5.2599900719757002  6.9497292499999999   T   T   T
  6.4640930321561996 11.7195096750386991  8.1801449999999996   T   T   T
  7.2522541600907999  9.1903700284534509  9.3887335000000007   T   T   T
  1.1976651332137800  1.3078999423826099  9.3596327500000012   T   T   T
  8.8037696193707387  7.7965404939907810  7.4633279999999997   T   T   T
  8.5576310240442002  3.6887296253086501 11.7155149999999999   T   T   T
  9.6115485114238801  8.4275378616849590 12.9465372500000004   T   T   T
  4.1256608242987198  7.9530410166168908 11.7618217499999993   T   T   T
  3.9545068722461401 11.7576782903286308  9.9777094999999996   T   T   T
  4.8085590330569401  7.8847183027015806  9.2950452500000011   T   T   T
 10.1067479898067187  5.7231111933017402 12.4260134999999998   T   T   T
  5.6448495638719791  3.0943095164460601  8.1972397499999996   T   T   T
  4.2720279533374796  9.6387395609562603 14.7566210000000009   T   T   T
  4.2037308728351999  0.6798005330170501 13.7994592500000017   T   T   T
  5.4420565720722598  4.6969902081865200  5.0784525000000000   T   T   T
  8.4573785274812394  3.4141206648955804  9.0470032500000013   T   T   T
 10.5118208061602392  2.5677821443182305  5.7972160000000006   T   T   T
 11.9773520717428195  8.3335867331952898  4.9588320000000001   T   T   T
 11.7873360225091783  2.7079265007777602  9.2922727500000004   T   T   T
 12.7529889996621009  9.7169768335528506  7.2071692500000006   T   T   T
 12.4440018847489799  7.5328171628678104 15.1795012499999995   T   T   T
  3.8359543554007196  5.3605710414698402 12.8659577500000015   T   T   T
  1.9649735923175400  6.0558087191004306 10.0668942499999989   T   T   T
  4.3384596811437000  2.2858525882519505 10.7128737500000000   T   T   T
  2.0519775906839999  1.8641244923667002  7.0875074999999992   T   T   T
  3.8380944727948196  7.0056750395796916 14.8595410000000019   T   T   T
  8.1183918704716795 10.1163456168402597 11.6390347500000004   T   T   T
  5.0302734025853395  2.0232470299003800  5.8972379999999998   T   T   T
  9.4490123889592184  0.0034771146078900  5.9059680000000006   T   T   T
  1.3885709028046800  9.5488798577616603 14.3365475000000000   T   T   T
  6.6695358516309602  0.0399343360144200  5.4909545000000000   T   T   T
  0.3119881446229800  2.7944910229947602 13.4520754999999994   T   T   T
  9.1616909698259388  0.7844743896858301  8.6595507500000011   T   T   T
  3.4104708495908396 10.0427293282221299  6.2618160000000005   T   T   T
  0.1026351136486200 11.4153200862951909 11.1490674999999992   T   T   T
  5.8402918958025598  3.1348425949067704 12.7156207500000011   T   T   T
 11.5635246836310603  7.9048878370280704 11.0917554999999997   T   T   T
 12.4065413159755185  5.3079101447843398  9.1502367499999995   T   T   T
  1.2551341031485199 11.0645100178101909  4.9872304999999999   T   T   T
  3.1700613414863397  6.7730990112381297  6.5505999999999993   T   T   T
  1.2428429281800000  8.0234181671100018 12.0452500000000011   F   F   F
  6.3015775234456797  6.1681260041115600  3.4890590000000001   T   T   T
