H  C  N  O  S  K  Fe
 1.0000000000000000
    12.8035739999999993    0.0000030000000000    0.0000000000000000
     0.0000000000000000   12.3205950000000009    0.0000000000000000
     0.0000000000000000    0.0000000000000000   25.0000000000000000
 H   C   N   O   S   K   Fe 
 104  56   3  56   1   2   1
Selective dynamics
Cartesian
  7.2763022168848197 11.0262116270105395  7.4997287499999992   T   T   T
  6.9452745175451405 11.1242765861143820  9.0566434999999998   T   T   T
  3.1801981870936196  6.5722651835205914 13.3185654999999983   T   T   T
 12.0414972092683801  6.5486511433118100  9.8840017499999995   T   T   T
  7.0079002549441203  0.5205428381777401 12.1469754999999999   T   T   T
  5.5655942884903196  1.2340461447503399 12.0677522499999998   T   T   T
 12.0417980932573787  5.6461037389502104 11.0983319999999992   T   T   T
  1.9691479415487598 10.5440687857703708  4.5040647500000004   T   T   T
  3.2671247238373797  5.5435843528782609 14.4171272500000001   T   T   T
  5.1229264658363398  7.2892284134913305  5.6338797500000002   T   T   T
 11.8981596619094994  1.1441411666673000  6.8193252499999994   T   T   T
 12.7887044412993589  4.1039610342629702  7.7793937499999997   T   T   T
  2.6474529961702200  0.3305955729860400 11.5462267499999989   T   T   T
  6.9697818385385393  7.1554698137859312 12.1610920000000000   T   T   T
  1.8845411563423198  3.7808176098315900 11.0461624999999994   T   T   T
  2.9318057786358600  3.5390574726520208  9.8067017500000002   T   T   T
  4.6393566017534393  7.7334733493667311  9.1872387500000006   T   T   T
  6.0554523718718398  6.9636459437865303  9.0613939999999999   T   T   T
 12.6044935325173189 10.6803306517242902 13.2034549999999999   T   T   T
 12.2474759863507803  9.5050611258408608 14.2323127500000002   T   T   T
 11.1889935126971398 10.9157372181931809 11.6028395000000000   T   T   T
  6.3893560100034001  6.5930582947849503  6.3599667499999999   T   T   T
 12.6807532837259398 10.8399906728727302 10.8553780000000000   T   T   T
  7.0835545251382790  3.6945087478269603 10.9913375000000002   T   T   T
  4.3041946283691592  6.3612792000991210 10.9559882499999990   T   T   T
  9.3151531993967982 11.3164876638459013 11.5599167500000011   T   T   T
  9.6125013534009600 10.1143379563513225 10.5391445000000008   T   T   T
  8.0709948320240397  0.7467715117479301  8.3896460000000008   T   T   T
  7.9564235865139192  2.3596029159681904  8.2110754999999997   T   T   T
  8.3965201954372191  4.2932687810439907 10.0229122500000010   T   T   T
  5.2092810669295195  3.2552634497610904 12.8306410000000017   T   T   T
  4.1525933982791994  3.0612401969923502 11.6200139999999994   T   T   T
  1.5563229452454599  7.5809511764453719  8.8449904999999998   T   T   T
  2.2564930472939402  8.8805729176855799  9.3729429999999994   T   T   T
  5.9215515706939197 10.3070887345050917 10.7653827499999988   T   T   T
  5.9051905236580193  9.2169172684878902 13.0674299999999999   T   T   T
  4.9342480059784801  8.6653034274431100 12.0238860000000010   T   T   T
  3.2529880417124999  5.2726728232024511 11.2287902499999994   T   T   T
 10.6620235018621798  3.6679882734995104  8.7492612500000000   T   T   T
  2.8340315418563398 10.8293002495290303 12.7214992500000008   T   T   T
  1.9967806149555598  9.9742253799274216 13.7446110000000008   T   T   T
  3.0934575582443400  7.6527518984743805  7.2828862499999998   T   T   T
  2.9666329083089997  8.5652980520625004  6.0480542499999999   T   T   T
 11.3639270797945198  8.3091978484554900 15.8272887499999992   T   T   T
 11.7452545158433797  7.0718575843752607 15.0155464999999992   T   T   T
  5.7103637875653597  3.4957374332033702  6.2914559999999993   T   T   T
  4.6217812637593791  2.5186199884982097  5.8505452499999997   T   T   T
  6.1264202779105199 11.2667278528746913 13.7829077500000015   T   T   T
 10.4977965394150790  3.1227484348872601 12.5475914999999993   T   T   T
  6.3434736343599596  4.5875644388749208 13.9523252499999995   T   T   T
  6.7943439386612994  3.2785657624800000 14.5584672500000014   T   T   T
  0.9688834469088601  3.5753398097300702  4.5018254999999998   T   T   T
  2.1573005586224401  4.3251084184411805  5.0729194999999994   T   T   T
  3.1289927255596797  0.6377322255978601  6.7733070000000009   T   T   T
  2.9976527672174997  1.8792286545639001  7.6308962499999993   T   T   T
  9.0067250885245205  3.4928507509281905 11.9860752500000007   T   T   T
 11.4508379961779987 10.4787738252163507  8.0345297499999990   T   T   T
 10.4305441025154586  4.0113655428247199  4.3252705000000002   T   T   T
  9.9422218078352405  4.4920600954524295  5.7280117499999994   T   T   T
  9.6347708657306406  8.9617443280240803  8.8521457500000000   T   T   T
 12.5731150455010798  5.2837036644057598 14.3656709999999990   T   T   T
 11.2349775487181383 10.2424611895656330  4.8734052500000002   T   T   T
 12.2144057631019187 10.1364659850045911  6.0854425000000001   T   T   T
  4.3012693958173802  0.6952585903880101  4.2499637500000000   T   T   T
  4.8962461020963000  0.0595916762500500  5.6235662499999997   T   T   T
  9.7256243866559391  0.0914005183132800  5.6120020000000004   T   T   T
  9.2843416546372790 11.8325598033617112  4.1504094999999994   T   T   T
  0.4949732392302599  5.9858356498639207  7.9532452500000002   T   T   T
 12.2079761923463401  7.1865053878905307  7.7742547499999999   T   T   T
  0.9286187673936600  6.2734466122976702 14.3980342500000003   T   T   T
  8.9825996981435399 10.4169339628723812  8.6739335000000004   T   T   T
  2.2617823317490799  3.9023729349047103  7.7600689999999997   T   T   T
 11.9742510461200187  0.8274683809778401 12.4705592500000009   T   T   T
 12.1533731744157585  2.6953052458198203 14.2789904999999990   T   T   T
  9.0312577605944391  2.3112910346683799 13.9691674999999993   T   T   T
  8.6084212656733197  1.0357433082162899 14.7220010000000006   T   T   T
 10.3200090556731006  6.9997236164682013  6.7599774999999998   T   T   T
  3.8234578111052393  3.8192808672271803  7.5111287500000001   T   T   T
 11.2349834383621783  8.4402834047750108  6.2978767500000004   T   T   T
  5.4208159549492194 10.7795075405627401 15.0017967499999987   T   T   T
 12.4641284628982802 11.6645061541448101  7.5952392499999997   T   T   T
 10.4397260575738198  2.3633257959911402  5.8006244999999996   T   T   T
  9.6679399325707784  1.6420399132157102  7.0497012500000000   T   T   T
 11.2064908769255389  3.4646893431271804 15.2290080000000003   T   T   T
  3.2962677068332202  6.3419549731163398  5.5779877500000001   T   T   T
  4.0516003429960801  4.9991852475470102  5.4560110000000002   T   T   T
  3.1008877283080198  1.2030290853632402 12.7374837500000009   T   T   T
  7.6306476571575601  5.7068903033983194 11.8544479999999997   T   T   T
  8.4838289188648801  0.9922870619867101 10.5254037499999988   T   T   T
  0.6516040972946400  1.1214784931676303 12.6560160000000010   T   T   T
  0.0111152947323600  3.0761552781470698 11.8695389999999996   T   T   T
 12.2321050396922999  3.5673355405321501 10.4985132500000002   T   T   T
  0.9071578007620800  9.4573765339862099  4.6843655000000002   T   T   T
  0.8959631238709199  4.0434292589459400  6.4524929999999996   T   T   T
  6.0695807316736197 11.8459601612939398 10.8271197499999996   T   T   T
  0.7089562986344999 10.3899443769607505  9.0373532500000007   T   T   T
  2.0551233007800600 10.9584301287172199  9.7690007500000000   T   T   T
 11.5384315991271595  2.4422351521951202  8.6059377500000007   T   T   T
  0.5559341279020199  1.1614377333087902  7.5061357499999994   T   T   T
  9.3322989774831591  1.5059494991446201 11.7163059999999994   T   T   T
  3.2101470270370198  0.2450959501805400  8.9785942499999987   T   T   T
  4.2472246137131995 11.8058198518182014  9.9660332500000006   T   T   T
  7.4645013109321194 11.3492064183321908  5.3579077499999999   T   T   T
  6.2749282925578198 10.2562080865152900  5.6812057500000002   T   T   T
  0.0000000000000000  0.0000000000000000  1.7000000000000002   F   F   F
  2.1169990048141201  1.2680528894423400  1.9380032500000002   T   T   T
  0.6873675523343999  1.2821564323862999  1.7883877499999998   T   T   T
  2.8502901603002400  0.0206412374478300  1.8899807500000001   T   T   T
  4.2548883209666393  0.0276024563217300  1.8844907500000001   T   T   T
  6.3928840348191001  1.2598346991927001  2.0808197499999999   T   T   T
  4.9530092109964201  1.2739605400134901  2.0383457500000000   T   T   T
  7.1063437345366189  0.0415018644585900  1.9445649999999999   T   T   T
  8.5209092214905393  0.0859307542986300  1.8058835000000000   T   T   T
 10.6436196445945797  1.3228079811090601  1.6514712500000002   T   T   T
  9.2310694401882589  1.3400025189289202  1.7267057499999998   T   T   T
 11.3725081631250600  0.0241734543704700  1.5978297499999998   T   T   T
  0.0022047754428000  2.5237899830146504  1.8376714999999999   T   T   T
  2.0853645743536200  3.7496645396051402  2.1956222500000000   T   T   T
  0.6816261736813199  3.7552370622261906  2.0637147499999999   T   T   T
  2.8641222453996598  2.4795027963904199  2.0704375000000002   T   T   T
  4.2594896693907600  2.5430647033255203  2.1397659999999998   T   T   T
  6.4274536846190999  3.6927129905809504  2.4947187500000001   T   T   T
  4.9491161562859798  3.7440399965504105  2.4321945000000000   T   T   T
  7.1008353809303397  2.4917924737518300  2.1800305000000000   T   T   T
  8.5417599697852786  2.5215778497867603  2.0741722500000002   T   T   T
 10.6445740230005406  3.7831424641665303  2.0336042499999998   T   T   T
  9.2184830148032990  3.7919965720284008  2.1545945000000000   T   T   T
 11.3378765440268996  2.5401254358328500  1.7893775000000001   T   T   T
 12.8030226781035594  4.9641232543369211  2.1172572500000002   T   T   T
  2.1316546157932201  6.1798632275330396  2.1723580000000000   T   T   T
  0.7069251396551400  6.1959501410086810  2.1241295000000000   T   T   T
  2.8027539470032199  4.9739711036747405  2.2087889999999999   T   T   T
  4.2264858966909600  5.0298636932803200  2.4380162500000000   T   T   T
  8.4604702064950192  4.9588434779075401  2.4731462500000001   T   T   T
 10.6493911116465600  6.2284351033114209  2.2067239999999999   T   T   T
  9.1437217938956401  6.2484647114280305  2.3186232499999999   T   T   T
 11.4032761757329801  4.9674301436787598  2.1720922499999999   T   T   T
 12.7982827950087596  7.4250008278877706  2.0194575000000001   T   T   T
  2.1065556416452798  8.6436755620425600  2.0752560000000000   T   T   T
  0.6905590992253799  8.6836609820978108  1.9078097499999997   T   T   T
  2.7969503429804998  7.4086618683336010  2.3278805000000000   T   T   T
  4.2290042316610199  7.4110584363990899  2.3892920000000002   T   T   T
  6.4210639329786590  8.6510000578471224  2.2424815000000002   T   T   T
  5.0199967419499796  8.6049379530966608  2.3078029999999998   T   T   T
  8.5455829889459380  7.5031643966503800  2.1488637500000003   T   T   T
 10.6143433763933999  8.6117375218147512  1.8016259999999999   T   T   T
  9.2109236566779593  8.6990911971776708  1.8442502500000000   T   T   T
 11.4036326272331401  7.4373049561284308  1.9503280000000001   T   T   T
 12.7968977043734391  9.8591907613951797  1.8145535000000002   T   T   T
  2.1512661061604996 11.0741990204845511  1.9137854999999999   T   T   T
  0.7126489774118400 11.0793135784170307  1.8045217499999999   T   T   T
  2.8797863939027399  9.8589342638461819  2.0256212499999999   T   T   T
  4.3004471502951001  9.8544598798225493  2.0909460000000002   T   T   T
  6.4024786490674792 11.1166747750230606  1.8894359999999999   T   T   T
  4.9680426554442594 11.0724889658665209  1.9502807500000001   T   T   T
  7.1189674183219189  9.8446390547186393  2.0229612500000003   T   T   T
  8.5337407072818596  9.9396282167207719  1.9260090000000001   T   T   T
 10.6284964470929992 11.1001930268166014  1.7134702500000001   T   T   T
  9.2536384281137991 11.1588668278308027  1.8178745000000001   T   T   T
 11.3572591064910586  9.8290976171984692  1.6599917499999999   T   T   T
  4.8428440594069198  6.2117671811015400  2.6574800000000001   T   T   T
  7.1560772972035203  4.8110692166100897  2.8086880000000001   T   T   T
  7.1811509202749404  7.5159947445838799  2.4278232499999999   T   T   T
  0.0396679049310600  3.8560887438590705 11.2748534999999990   T   T   T
  5.4660523902843599  7.4951200514351708  9.6291510000000002   T   T   T
  8.8758531008120407  0.6948422404981800 11.3612562500000003   T   T   T
 12.5684948758231787  1.5470696271990603 12.7404922499999991   T   T   T
  5.8559538676980596  8.9329622862791709 12.1424260000000004   T   T   T
  4.2338384770961994  0.6953354551011001  5.2282479999999998   T   T   T
 12.4132895676879595  0.9593058730879200  7.6421980000000005   T   T   T
  9.3541390579408787 11.5784716962071101  5.1080517499999996   T   T   T
  2.4943938231088802  7.9704662679336611  9.0814747499999999   T   T   T
  0.1268063408245200 10.2319959375407397 14.0409725000000005   T   T   T
  4.9750239322034995  2.6345865628503002 12.0614255000000004   T   T   T
  3.2914781458713001 12.0888787680872998  9.9019832500000007   T   T   T
 12.3163188832126789 10.6991867620259100  7.5903872500000000   T   T   T
  7.9987721757333592  4.1387781598178695 11.0384302500000011   T   T   T
  0.2295231412752600  6.8251227738650702  8.3710292500000012   T   T   T
  8.5012649539738199  1.6222212235593900  8.4662984999999988   T   T   T
  9.7054773227882389 10.4041724599485299 11.5947377500000002   T   T   T
  3.1364322422323796  3.5231661707550606  8.1643987500000001   T   T   T
 11.8744370719665593  9.6614436402383710  5.2517515000000001   T   T   T
 12.7951842020650197  6.2334930871328398 14.1742730000000012   T   T   T
  8.4737003955806998  2.0485449752061000 14.8139307500000008   T   T   T
  2.8819117871867399  6.4184757506607300 14.2239835000000010   T   T   T
  7.7284903930579798 11.1881562209675103  8.4035799999999998   T   T   T
  9.8530587427851604  9.9277941015283204  9.0173909999999999   T   T   T
 10.9243392849019791  7.7771908803833103  6.9800675000000005   T   T   T
  6.0181357152701400  3.8065028299450803 14.3412779999999991   T   T   T
  6.0901947418850995  0.3136703462424000 12.1965834999999991   T   T   T
  6.0119540217071998  6.9021447267091496  5.4816822500000004   T   T   T
 11.7025502433382194  6.6109428833597406 10.8303362500000002   T   T   T
  1.6639266138205200  3.4320211440716397  5.1605509999999999   T   T   T
  1.8724261585520399  9.6862215861889798  4.9150090000000004   T   T   T
  0.7687633292173799  4.4788665313686602  7.3750027499999993   T   T   T
  2.6383090677266399  0.8826840201184800  7.5843017499999998   T   T   T
 12.1361285527381195 11.1491583815420423 11.6121400000000001   T   T   T
 11.8049490030107993  3.5934103780855500 14.4996729999999996   T   T   T
  3.5780281496710797  6.1513518615129605 11.6092307500000000   T   T   T
  9.6056335163073587  2.8340508117454202 12.5463827500000011   T   T   T
  4.7444068535656800  3.4697809165601106  6.1280557499999997   T   T   T
 11.0936456812263593  7.8268695303886213 15.0048564999999989   T   T   T
  6.1159063670489395 10.5209481895828816 14.3885757499999993   T   T   T
  3.5144269079690393  7.8201251856853808  6.3607297500000008   T   T   T
 10.7338683246841207  4.0091480300024411  5.2405439999999999   T   T   T
  2.7840682830718797  9.9106774138578597 13.1284147500000010   T   T   T
 10.2920107121928588  1.4533415225999702  6.3385954999999994   T   T   T
  2.8289221476158999  3.7367166309244499 10.8222727499999998   T   T   T
 11.5194912721089597  3.2943845423120703  9.1006844999999998   T   T   T
  3.2738615803689597  5.4986563191416700  5.1419407499999998   T   T   T
  2.3495515997335197  0.6847434908969400 12.4330514999999995   T   T   T
  7.6052801920628390  6.4694300332791306 12.4896017500000003   T   T   T
  1.2099979197977999 10.3873574158214996  9.9152035000000005   T   T   T
  5.8357800443606997 11.0816054238381003 10.1551454999999997   T   T   T
  6.5663167669721991 11.1678721834927508  5.7610869999999998   T   T   T
  6.8974248727565994  5.9493834663574496  7.7391402500000002   T   T   T
  8.9451196679376004  5.5749343284107997  6.4935425000000002   T   T   T
  8.9164919007595209  4.9139187527973904  8.8400165000000008   T   T   T
  7.5633729420391793  3.6891089898764102  7.1915847500000005   T   T   T
  8.0692919566820400  5.0416395095340301  7.5977507500000003   T   T   T
  9.6943540898400009  8.0585338431300002 12.5177499999999995   F   F   F
  1.2428429281800000  8.0234181671100018 12.0452500000000011   F   F   F
  6.4520142684803394  6.2423655094161301  3.7059780000000000   T   T   T
