vasp
1.0 
12.803574 0.000003 0.000000 
0.000000 12.320595 0.000000 
0.000000 0.000000 25.000000 
H C N O Br K Fe 
106 56 3 53 1 1 1 
Selective Dynamics
Direct 
0.351051 0.767664 0.356105 T T T 
0.333365 0.841735 0.405150 T T T 
0.298817 0.635127 0.487400 T T T 
0.799476 0.415327 0.498291 T T T 
0.743536 0.209927 0.347076 T T T 
0.424762 0.091924 0.428603 T T T 
0.388782 0.975484 0.456413 T T T 
0.849965 0.263354 0.338075 T T T 
0.048338 0.551995 0.167904 T T T 
0.288540 0.649360 0.552054 T T T 
0.708427 0.508412 0.516559 T T T 
0.504883 0.383007 0.210926 T T T 
0.783477 0.825172 0.256160 T T T 
0.024417 0.306613 0.397667 T T T 
0.142748 0.029298 0.315153 T T T 
0.618530 0.114155 0.457759 T T T 
0.084045 0.247795 0.490261 T T T 
0.177089 0.205982 0.521396 T T T 
0.163654 0.498457 0.229463 T T T 
0.247906 0.488449 0.270860 T T T 
0.082684 0.437153 0.582293 T T T 
0.171465 0.513428 0.605460 T T T 
0.868886 0.565479 0.555645 T T T 
0.461004 0.484784 0.236608 T T T 
0.964085 0.591808 0.595200 T T T 
0.252005 0.315407 0.480233 T T T 
0.269821 0.550326 0.402395 T T T 
0.641947 0.797750 0.503232 T T T 
0.650791 0.784634 0.443475 T T T 
0.662277 0.074882 0.294103 T T T 
0.753136 0.053032 0.342077 T T T 
0.297178 0.290184 0.425043 T T T 
0.294599 0.077992 0.493329 T T T 
0.310873 0.075219 0.551602 T T T 
0.818134 0.468277 0.258231 T T T 
0.830917 0.448810 0.192846 T T T 
0.948168 0.575895 0.387901 T T T 
0.472255 0.820576 0.464717 T T T 
0.359132 0.779319 0.490964 T T T 
0.288539 0.466847 0.449441 T T T 
0.863796 0.938289 0.321953 T T T 
0.052287 0.908928 0.539822 T T T 
0.159784 0.960858 0.517546 T T T 
0.546104 0.180668 0.216792 T T T 
0.419935 0.233111 0.225083 T T T 
0.481630 0.515900 0.555900 T T T 
0.437448 0.393322 0.564003 T T T 
0.281650 0.266579 0.281826 T T T 
0.255616 0.308598 0.226559 T T T 
0.671642 0.900742 0.591557 T T T 
0.590987 0.120466 0.370130 T T T 
0.349057 0.533992 0.604513 T T T 
0.324313 0.620399 0.646277 T T T 
0.002966 0.278893 0.315588 T T T 
0.956664 0.325175 0.256813 T T T 
0.046699 0.700720 0.227702 T T T 
0.069813 0.822963 0.228055 T T T 
0.537023 0.220713 0.398972 T T T 
0.691698 0.735452 0.366545 T T T 
0.841347 0.000601 0.218625 T T T 
0.851375 0.126847 0.218784 T T T 
0.551133 0.505300 0.471899 T T T 
0.727370 0.211367 0.484490 T T T 
0.548488 0.636525 0.314649 T T T 
0.638834 0.699753 0.286591 T T T 
0.167719 0.163335 0.241379 T T T 
0.042292 0.170321 0.253876 T T T 
0.617024 0.810600 0.211732 T T T 
0.696885 0.705128 0.195617 T T T 
0.729007 0.394758 0.324656 T T T 
0.654034 0.495092 0.313859 T T T 
0.778707 0.291495 0.441403 T T T 
0.590254 0.624198 0.483293 T T T 
0.185389 0.269449 0.368188 T T T 
0.024565 0.969547 0.463773 T T T 
0.423325 0.266411 0.497404 T T T 
0.889137 0.799919 0.507175 T T T 
0.890226 0.747821 0.563354 T T T 
0.435710 0.384225 0.431695 T T T 
0.247734 0.150755 0.367965 T T T 
0.477479 0.448875 0.384385 T T T 
0.767621 0.885524 0.552236 T T T 
0.763596 0.846929 0.376707 T T T 
0.702333 0.080448 0.213354 T T T 
0.587338 0.022910 0.225115 T T T 
0.507497 0.186275 0.526868 T T T 
0.309349 0.885214 0.277782 T T T 
0.263250 0.890691 0.221558 T T T 
0.218589 0.984995 0.364224 T T T 
0.663800 0.038194 0.511869 T T T 
0.514468 0.879558 0.167385 T T T 
0.057003 0.003238 0.401726 T T T 
0.989782 0.133580 0.452061 T T T 
0.914778 0.221538 0.471725 T T T 
0.977780 0.534881 0.217647 T T T 
0.050206 0.407175 0.364137 T T T 
0.056785 0.599125 0.365819 T T T 
0.849720 0.585113 0.466572 T T T 
0.817173 0.685102 0.427068 T T T 
0.893112 0.971730 0.382797 T T T 
0.910558 0.830242 0.262957 T T T 
0.448863 0.887626 0.221458 T T T 
0.082903 0.756778 0.340821 T T T 
0.191948 0.757059 0.373207 T T T 
0.122415 0.998476 0.214311 T T T 
0.104064 0.924638 0.162460 T T T 
0.000000 0.000000 0.068000 F F F 
0.162078 0.098381 0.063648 T T T 
0.053328 0.099871 0.063465 T T T 
0.217780 0.001151 0.066976 T T T 
0.332950 0.999994 0.068092 T T T 
0.501759 0.095477 0.064633 T T T 
0.387884 0.099761 0.067177 T T T 
0.554646 0.996627 0.065877 T T T 
0.665802 0.997111 0.067133 T T T 
0.833861 0.099871 0.063975 T T T 
0.722075 0.096617 0.066461 T T T 
0.888597 0.000569 0.068998 T T T 
0.995509 0.199673 0.057726 T T T 
0.160880 0.298101 0.062008 T T T 
0.051370 0.300785 0.058743 T T T 
0.219358 0.197840 0.064993 T T T 
0.333207 0.201302 0.069079 T T T 
0.502697 0.293611 0.074053 T T T 
0.387576 0.299500 0.075091 T T T 
0.558537 0.195917 0.066907 T T T 
0.668402 0.195541 0.067438 T T T 
0.837282 0.300876 0.059788 T T T 
0.727206 0.297931 0.066591 T T T 
0.887676 0.196973 0.058566 T T T 
0.000347 0.402978 0.063830 T T T 
0.164982 0.501270 0.070343 T T T 
0.054660 0.503909 0.066954 T T T 
0.215105 0.396418 0.067087 T T T 
0.325798 0.400357 0.075655 T T T 
0.667863 0.390672 0.076875 T T T 
0.826595 0.502349 0.067206 T T T 
0.715840 0.497207 0.074030 T T T 
0.887182 0.403450 0.062259 T T T 
0.994718 0.604084 0.066134 T T T 
0.165678 0.699473 0.069191 T T T 
0.052743 0.701374 0.069498 T T T 
0.217838 0.598041 0.068725 T T T 
0.327578 0.596183 0.076605 T T T 
0.498848 0.697643 0.079264 T T T 
0.385440 0.695229 0.074740 T T T 
0.662703 0.601091 0.077177 T T T 
0.828529 0.699031 0.066550 T T T 
0.717442 0.699032 0.065594 T T T 
0.886201 0.600287 0.066582 T T T 
0.998480 0.802183 0.067298 T T T 
0.163731 0.898720 0.061750 T T T 
0.055164 0.900524 0.065640 T T T 
0.220783 0.800175 0.068322 T T T 
0.333394 0.798270 0.069627 T T T 
0.500002 0.899125 0.068919 T T T 
0.390497 0.898181 0.068537 T T T 
0.552115 0.798499 0.071301 T T T 
0.664142 0.798123 0.066564 T T T 
0.830566 0.901721 0.065455 T T T 
0.719253 0.899254 0.067865 T T T 
0.885991 0.800739 0.067827 T T T 
0.374925 0.496761 0.085234 T T T 
0.559247 0.384214 0.083905 T T T 
0.560824 0.607076 0.091232 T T T 
0.988066 0.213133 0.456062 T T T 
0.208405 0.444452 0.244162 T T T 
0.521398 0.893968 0.206087 T T T 
0.001772 0.006978 0.430698 T T T 
0.399447 0.835546 0.466590 T T T 
0.100021 0.122408 0.236495 T T T 
0.843357 0.875290 0.262308 T T T 
0.689135 0.771665 0.216616 T T T 
0.867286 0.467329 0.225420 T T T 
0.100634 0.509447 0.589896 T T T 
0.249325 0.078921 0.526766 T T T 
0.117970 0.730358 0.373637 T T T 
0.733614 0.780512 0.392860 T T T 
0.317481 0.333527 0.456313 T T T 
0.701972 0.442843 0.298363 T T T 
0.682361 0.088833 0.331258 T T T 
0.601180 0.769217 0.473192 T T T 
0.257661 0.231629 0.365929 T T T 
0.627047 0.646091 0.318336 T T T 
0.778323 0.269945 0.478613 T T T 
0.888409 0.822302 0.544171 T T T 
0.285546 0.685761 0.516119 T T T 
0.307465 0.833050 0.366205 T T T 
0.578715 0.552514 0.500317 T T T 
0.785136 0.493908 0.509368 T T T 
0.504166 0.410082 0.416760 T T T 
0.291601 0.582742 0.616452 T T T 
0.364296 0.046309 0.441749 T T T 
0.511603 0.461625 0.209957 T T T 
0.788193 0.271971 0.361938 T T T 
0.960065 0.267100 0.282811 T T T 
0.036046 0.579014 0.203585 T T T 
0.068990 0.330627 0.366228 T T T 
0.027420 0.767910 0.248274 T T T 
0.916171 0.620400 0.568505 T T T 
0.451875 0.237548 0.531463 T T T 
0.250171 0.535671 0.438941 T T T 
0.537044 0.140567 0.400633 T T T 
0.280116 0.240641 0.242495 T T T 
0.425147 0.468730 0.570207 T T T 
0.687958 0.885500 0.553778 T T T 
0.493989 0.245938 0.205409 T T T 
0.825308 0.068958 0.196562 T T T 
0.103653 0.907994 0.512099 T T T 
0.631763 0.089050 0.231702 T T T 
0.151270 0.277034 0.508366 T T T 
0.834715 0.970960 0.356704 T T T 
0.329894 0.897765 0.240949 T T T 
0.158949 0.027731 0.355897 T T T 
0.639944 0.109577 0.495685 T T T 
0.880286 0.648830 0.445887 T T T 
0.003255 0.545296 0.365784 T T T 
0.133473 0.919861 0.198888 T T T 
0.387283 0.571317 0.319085 T T T 
0.097070 0.651220 0.481810 F F F 
0.504794 0.492524 0.130083 T T T 

