vasp
1.0 
12.803574 0.000003 0.000000 
0.000000 12.320595 0.000000 
0.000000 0.000000 25.000000 
H C N O S K Fe 
104 56 3 56 1 2 1 
Selective Dynamics
Direct 
0.545939 0.798529 0.321357 T T T 
0.519740 0.895274 0.367805 T T T 
0.298808 0.507318 0.506879 T T T 
0.806958 0.480095 0.422296 T T T 
0.542245 0.024326 0.417426 T T T 
0.466040 0.071199 0.373981 T T T 
0.712219 0.418982 0.409024 T T T 
0.154540 0.807006 0.284546 T T T 
0.373832 0.445881 0.543582 T T T 
0.432769 0.545559 0.232330 T T T 
0.910526 0.155645 0.272849 T T T 
0.999694 0.362723 0.362543 T T T 
0.283465 0.960658 0.462974 T T T 
0.462963 0.627500 0.518679 T T T 
0.301976 0.224052 0.361530 T T T 
0.376151 0.184215 0.314495 T T T 
0.461533 0.694474 0.377275 T T T 
0.486803 0.574229 0.388224 T T T 
0.955416 0.890864 0.577402 T T T 
0.958350 0.836991 0.637547 T T T 
0.928999 0.032679 0.502457 T T T 
0.519513 0.451259 0.238722 T T T 
0.977968 0.914529 0.488611 T T T 
0.388098 0.348901 0.394391 T T T 
0.322046 0.565993 0.422767 T T T 
0.823050 0.918783 0.501275 T T T 
0.757703 0.863276 0.448067 T T T 
0.608723 0.022310 0.314901 T T T 
0.656032 0.126522 0.283468 T T T 
0.509241 0.364209 0.390773 T T T 
0.475818 0.116014 0.580669 T T T 
0.452584 0.981832 0.583743 T T T 
0.013585 0.800442 0.235992 T T T 
0.977742 0.862714 0.284147 T T T 
0.312212 0.617288 0.585558 T T T 
0.508028 0.841269 0.554329 T T T 
0.425844 0.790771 0.595747 T T T 
0.248675 0.464716 0.431029 T T T 
0.805023 0.244310 0.372538 T T T 
0.211300 0.865254 0.529696 T T T 
0.123465 0.814984 0.565959 T T T 
0.366046 0.564487 0.310301 T T T 
0.277310 0.638715 0.278595 T T T 
0.954307 0.701135 0.574525 T T T 
0.945977 0.573134 0.572124 T T T 
0.492392 0.241515 0.270604 T T T 
0.508489 0.116919 0.264105 T T T 
0.653021 0.973617 0.486822 T T T 
0.882474 0.359546 0.553745 T T T 
0.479115 0.367767 0.478182 T T T 
0.540689 0.310473 0.531207 T T T 
0.986599 0.494015 0.233522 T T T 
0.107518 0.466943 0.239651 T T T 
0.128695 0.013062 0.251082 T T T 
0.188077 0.130362 0.252374 T T T 
0.813718 0.379816 0.500276 T T T 
0.834857 0.878935 0.356149 T T T 
0.854376 0.449505 0.171845 T T T 
0.806587 0.484458 0.220949 T T T 
0.761711 0.750794 0.356836 T T T 
0.173687 0.310175 0.508119 T T T 
0.804422 0.820026 0.204829 T T T 
0.833976 0.693428 0.197378 T T T 
0.338053 0.868770 0.175415 T T T 
0.415160 0.805527 0.215290 T T T 
0.656100 0.947112 0.228903 T T T 
0.679988 0.947055 0.166192 T T T 
0.979916 0.508831 0.392149 T T T 
0.905011 0.605935 0.367163 T T T 
0.205609 0.415897 0.541675 T T T 
0.654716 0.799509 0.377989 T T T 
0.274498 0.191882 0.172872 T T T 
0.073333 0.174298 0.469516 T T T 
0.000385 0.373427 0.617909 T T T 
0.703792 0.240017 0.553756 T T T 
0.631369 0.143087 0.543355 T T T 
0.785030 0.584382 0.312229 T T T 
0.351784 0.188216 0.224984 T T T 
0.838135 0.680111 0.280116 T T T 
0.530787 0.018066 0.507234 T T T 
0.898268 0.982175 0.332560 T T T 
0.918309 0.296056 0.219820 T T T 
0.808242 0.242007 0.227858 T T T 
0.046636 0.396056 0.559718 T T T 
0.262144 0.461796 0.238463 T T T 
0.226756 0.361032 0.204650 T T T 
0.348746 0.995421 0.513298 T T T 
0.533245 0.524896 0.512554 T T T 
0.903770 0.184394 0.440758 T T T 
0.189789 0.127888 0.473751 T T T 
0.188837 0.283583 0.419398 T T T 
0.171434 0.366554 0.370020 T T T 
0.268239 0.828115 0.261907 T T T 
0.046128 0.436729 0.316510 T T T 
0.254391 0.726632 0.580889 T T T 
0.986979 0.884419 0.399372 T T T 
0.107273 0.873800 0.423317 T T T 
0.894361 0.166271 0.351967 T T T 
0.015793 0.090155 0.286633 T T T 
0.910850 0.224191 0.505291 T T T 
0.245171 0.986611 0.367094 T T T 
0.242863 0.865490 0.354811 T T T 
0.593938 0.777997 0.221229 T T T 
0.550098 0.671118 0.244536 T T T 
0.000000 0.000000 0.068000 F F F 
0.162396 0.099343 0.075460 T T T 
0.055353 0.096827 0.069274 T T T 
0.222709 0.001292 0.073294 T T T 
0.332040 0.999848 0.078506 T T T 
0.498459 0.099495 0.077000 T T T 
0.388346 0.099584 0.077630 T T T 
0.550278 0.001286 0.076061 T T T 
0.663479 0.996355 0.079520 T T T 
0.828668 0.097214 0.072904 T T T 
0.717913 0.098018 0.079191 T T T 
0.889986 0.998918 0.071927 T T T 
0.994408 0.197852 0.069044 T T T 
0.159141 0.296426 0.073593 T T T 
0.048887 0.298744 0.069165 T T T 
0.216664 0.200071 0.077291 T T T 
0.328097 0.201096 0.078686 T T T 
0.501376 0.292964 0.083951 T T T 
0.385857 0.303268 0.079078 T T T 
0.551702 0.194870 0.079952 T T T 
0.665420 0.197443 0.080751 T T T 
0.826870 0.296954 0.072170 T T T 
0.718918 0.299280 0.078739 T T T 
0.882955 0.199334 0.071455 T T T 
0.998034 0.400584 0.070172 T T T 
0.163049 0.500697 0.072295 T T T 
0.051305 0.502519 0.070018 T T T 
0.213912 0.397708 0.074194 T T T 
0.323075 0.400512 0.079518 T T T 
0.661107 0.392858 0.084871 T T T 
0.823039 0.501196 0.076748 T T T 
0.714412 0.501379 0.082219 T T T 
0.882012 0.398562 0.075120 T T T 
0.991996 0.600644 0.071537 T T T 
0.164340 0.698757 0.075061 T T T 
0.051797 0.700823 0.073518 T T T 
0.219792 0.601923 0.074322 T T T 
0.328161 0.598645 0.080938 T T T 
0.495164 0.701310 0.082327 T T T 
0.386025 0.699639 0.086856 T T T 
0.662740 0.604882 0.079089 T T T 
0.826380 0.703788 0.074388 T T T 
0.716326 0.700775 0.073138 T T T 
0.880786 0.602664 0.075951 T T T 
0.998475 0.801111 0.075125 T T T 
0.165410 0.901158 0.069953 T T T 
0.056343 0.904192 0.067247 T T T 
0.222090 0.794856 0.075810 T T T 
0.331296 0.800222 0.083451 T T T 
0.493211 0.898432 0.078301 T T T 
0.383489 0.898661 0.080254 T T T 
0.548383 0.801469 0.078190 T T T 
0.661257 0.801265 0.071320 T T T 
0.830222 0.899557 0.073243 T T T 
0.718873 0.899898 0.072870 T T T 
0.886788 0.803476 0.076130 T T T 
0.375510 0.497967 0.086004 T T T 
0.553533 0.387495 0.092773 T T T 
0.555448 0.610903 0.093464 T T T 
0.227478 0.335993 0.394775 T T T 
0.430667 0.622810 0.380517 T T T 
0.934527 0.166136 0.480060 T T T 
0.147929 0.196994 0.470855 T T T 
0.484432 0.839944 0.593466 T T T 
0.361575 0.860940 0.213475 T T T 
0.943252 0.107440 0.300298 T T T 
0.671689 0.896895 0.198335 T T T 
0.041788 0.844902 0.266231 T T T 
0.984209 0.832881 0.601544 T T T 
0.452393 0.046519 0.560141 T T T 
0.240889 0.914400 0.386012 T T T 
0.907942 0.907873 0.348769 T T T 
0.446404 0.390097 0.408102 T T T 
0.927793 0.566947 0.400550 T T T 
0.625553 0.050490 0.278982 T T T 
0.751716 0.886437 0.487247 T T T 
0.276218 0.207395 0.212408 T T T 
0.850655 0.759861 0.218322 T T T 
0.148401 0.375816 0.525353 T T T 
0.631692 0.212871 0.561479 T T T 
0.315636 0.496698 0.545631 T T T 
0.538239 0.814415 0.359006 T T T 
0.731405 0.792715 0.385972 T T T 
0.829993 0.650058 0.314714 T T T 
0.488284 0.364968 0.519549 T T T 
0.518306 0.016694 0.379682 T T T 
0.503412 0.522150 0.217424 T T T 
0.747403 0.452740 0.440698 T T T 
0.037601 0.457416 0.256304 T T T 
0.231239 0.785483 0.289698 T T T 
0.051033 0.420096 0.357275 T T T 
0.141036 0.079965 0.273746 T T T 
0.934722 0.953026 0.516326 T T T 
0.988946 0.417566 0.584709 T T T 
0.259720 0.541357 0.441771 T T T 
0.827074 0.323861 0.530528 T T T 
0.454500 0.175296 0.260783 T T T 
0.944271 0.637591 0.549102 T T T 
0.589429 0.019218 0.479118 T T T 
0.319617 0.564444 0.274892 T T T 
0.860807 0.509315 0.196494 T T T 
0.167819 0.799441 0.535611 T T T 
0.878859 0.234026 0.213896 T T T 
0.344177 0.164432 0.350550 T T T 
0.865823 0.201002 0.384611 T T T 
0.223628 0.439860 0.205819 T T T 
0.275302 0.981578 0.500323 T T T 
0.537492 0.604282 0.517834 T T T 
0.033208 0.876422 0.431517 T T T 
0.314919 0.697832 0.598275 T T T 
0.555107 0.746743 0.249944 T T T 
0.550012 0.381318 0.284162 T T T 
0.721627 0.463717 0.279029 T T T 
0.673789 0.350289 0.355039 T T T 
0.700979 0.261220 0.269898 T T T 
0.664860 0.362782 0.295774 T T T 
0.757160 0.654070 0.500710 F F F 
0.097070 0.651220 0.481810 F F F 
0.489660 0.501959 0.137082 T T T 

